\ Model D-HU-[[1, 0], [1, 0]]
\ LP format - for model browsing. Use MPS format to capture full model detail.
\ Signature: 0xa965b3c10ae92caf
Maximize
  phi[0,0] + phi[0,1] + phi[1,0] + phi[1,1]
Subject To
 LB[0,0]: c[1,0] - 8.654792120088285 delt[0,0] >= 1.345207879911715
 LB[0,1]: c[1,1] - 3.071898567226626 delt[0,1] >= 0
 LB[1,0]: c[0,0] - 7.046170874264753 delt[1,0] >= 0.2691445681817338
 LB[1,1]: c[0,1] - 0.6214719567766291 delt[1,1] >= 2.87082869338697
 UB[0,0]: c[0,0] + 8.046170874264753 delt[0,0] <= 8.315315442446487
 UB[0,1]: c[0,1] + 1.621471956776629 delt[0,1] <= 4.4923006501636
 UB[1,0]: c[1,0] + 7.654792120088286 delt[1,0] <= 10
 UB[1,1]: c[1,1] + 2.071898567226626 delt[1,1] <= 3.071898567226626
 PM[0,0]: c[0,0] - c[1,0] + 16.70096299435304 delt[0,0]
   <= 6.970107562534771
 PM[0,1]: c[0,1] - c[1,1] + 4.693370524003255 delt[0,1] <= 4.4923006501636
 PM[1,0]: - c[0,0] + c[1,0] + 15.70096299435304 delt[1,0]
   <= 9.730855431818267
 PM[1,1]: - c[0,1] + c[1,1] + 3.693370524003255 delt[1,1]
   <= 0.2010698738396552
 RM[0,0]: c[0,0] - c[1,0] + 15.70096299435304 delt[0,0] - delt[1,0]
   <= 5.970107562534772
 RM[0,1]: c[0,1] - c[1,1] + 3.693370524003255 delt[0,1] - delt[1,1]
   <= 3.4923006501636
 RM[1,0]: - c[0,0] + c[1,0] + 15.70096299435304 delt[1,0]
   <= 9.730855431818267
 RM[1,1]: - c[0,1] + c[1,1] + 3.693370524003255 delt[1,1]
   <= 0.2010698738396552
 DB[0,0]: delt[0,0] >= 0
 DB[0,1]: delt[0,1] >= 0
 DB[1,0]: delt[1,0] >= 0
 DB[1,1]: delt[1,1] >= 0
 S1[0]: delt[0,0] + delt[1,0] <= 1
 S1[1]: delt[0,1] + delt[1,1] <= 1
 S2: delt[0,0] + delt[0,1] + delt[1,0] + delt[1,1] >= 1
 LBt[0,0]: c[1,0] - 8.654792120088285 delt[0,0] + 100 eta[0,0,0]
   <= 101.3452078799117
 LBt[0,1]: c[1,1] - 3.071898567226626 delt[0,1] + 100 eta[0,0,1] <= 100
 LBt[1,0]: c[0,0] - 7.046170874264753 delt[1,0] + 100 eta[0,1,0]
   <= 100.2691445681817
 LBt[1,1]: c[0,1] - 0.6214719567766291 delt[1,1] + 100 eta[0,1,1]
   <= 102.870828693387
 UBt[0,0]: c[0,0] + 8.046170874264753 delt[0,0] - 100 eta[1,0,0]
   >= -91.68468455755351
 UBt[0,1]: c[0,1] + 1.621471956776629 delt[0,1] - 100 eta[1,0,1]
   >= -95.5076993498364
 UBt[1,0]: c[1,0] + 7.654792120088286 delt[1,0] - 100 eta[1,1,0] >= -90
 UBt[1,1]: c[1,1] + 2.071898567226626 delt[1,1] - 100 eta[1,1,1]
   >= -96.92810143277337
 PMt[0,0]: c[0,0] - c[1,0] + 16.70096299435304 delt[0,0] - 100 eta[2,0,0]
   >= -93.02989243746524
 PMt[0,1]: c[0,1] - c[1,1] + 4.693370524003255 delt[0,1] - 100 eta[2,0,1]
   >= -95.5076993498364
 PMt[1,0]: - c[0,0] + c[1,0] + 15.70096299435304 delt[1,0] - 100 eta[2,1,0]
   >= -90.26914456818173
 PMt[1,1]: - c[0,1] + c[1,1] + 3.693370524003255 delt[1,1] - 100 eta[2,1,1]
   >= -99.79893012616034
 RMt[0,0]: c[0,0] - c[1,0] + 15.70096299435304 delt[0,0] - delt[1,0]
   - 100 eta[3,0,0] >= -94.02989243746522
 RMt[0,1]: c[0,1] - c[1,1] + 3.693370524003255 delt[0,1] - delt[1,1]
   - 100 eta[3,0,1] >= -96.5076993498364
 RMt[1,0]: - c[0,0] + c[1,0] + 15.70096299435304 delt[1,0] - 100 eta[3,1,0]
   >= -90.26914456818173
 RMt[1,1]: - c[0,1] + c[1,1] + 3.693370524003255 delt[1,1] - 100 eta[3,1,1]
   >= -99.79893012616034
 DBt[0,0]: delt[0,0] + eta[4,0,0] <= 1
 DBt[0,1]: delt[0,1] + eta[4,0,1] <= 1
 DBt[1,0]: delt[1,0] + eta[4,1,0] <= 1
 DBt[1,1]: delt[1,1] + eta[4,1,1] <= 1
 S1t[0]: delt[0,0] + delt[1,0] - zeta[0] >= 0
 S1t[1]: delt[0,1] + delt[1,1] - zeta[1] >= 0
 S2t: delt[0,0] + delt[0,1] + delt[1,0] + delt[1,1] + 3 theta <= 4
 Tite: eta[0,0,0] + eta[0,0,1] + eta[0,1,0] + eta[0,1,1] + eta[1,0,0]
   + eta[1,0,1] + eta[1,1,0] + eta[1,1,1] + eta[2,0,0] + eta[2,0,1]
   + eta[2,1,0] + eta[2,1,1] + eta[3,0,0] + eta[3,0,1] + eta[3,1,0]
   + eta[3,1,1] + zeta[0] + zeta[1] + theta = 8
 Covr[0,0]: eta[2,0,0] + eta[3,0,0] + zeta[0] <= 2
 Covr[0,1]: eta[2,0,1] + eta[3,0,1] + zeta[1] <= 2
 Covr[1,0]: eta[2,1,0] + eta[3,1,0] + zeta[0] <= 2
 Covr[1,1]: eta[2,1,1] + eta[3,1,1] + zeta[1] <= 2
 Covr[0,0]: eta[2,1,0] + eta[3,1,0] <= 1
 Covr[0,1]: eta[2,1,1] + eta[3,1,1] <= 1
 Covr[0,0]: eta[0,0,0] + eta[1,0,0] + eta[2,0,0] + eta[3,0,0] + zeta[0]
   <= 3
 Covr[0,1]: eta[0,0,1] + eta[1,0,1] + eta[2,0,1] + eta[3,0,1] + zeta[1]
   <= 3
 Covr[0,0]: eta[0,0,0] + eta[0,1,0] + eta[2,1,0] + eta[3,1,0] + zeta[0]
   <= 3
 Covr[0,1]: eta[0,0,1] + eta[0,1,1] + eta[2,1,1] + eta[3,1,1] + zeta[1]
   <= 3
 Covr[0,0]: eta[1,0,0] + eta[1,1,0] + eta[2,1,0] + eta[3,1,0] + zeta[0]
   <= 3
 Covr[0,1]: eta[1,0,1] + eta[1,1,1] + eta[2,1,1] + eta[3,1,1] + zeta[1]
   <= 3
 Covr1[0,0]: eta[0,0,0] + eta[1,0,0] + eta[2,0,0] + eta[3,0,0] <= 3
 Covr1[0,1]: eta[0,0,1] + eta[1,0,1] + eta[2,0,1] + eta[3,0,1] <= 3
 Covr1[1,0]: eta[0,1,0] + eta[1,1,0] + eta[2,1,0] + eta[3,1,0] <= 3
 Covr1[1,1]: eta[0,1,1] + eta[1,1,1] + eta[2,1,1] + eta[3,1,1] <= 3
 Covr1.2.a[0,0]: eta[0,0,0] + eta[1,0,0] + eta[2,0,0] <= 2
 Covr1.2.a[0,1]: eta[0,0,1] + eta[1,0,1] + eta[2,0,1] <= 2
 Covr1.2.b.i[0,0]: eta[0,0,0] + eta[0,1,0] + eta[2,1,0] + eta[4,0,1]
   + eta[4,1,1] + theta <= 5
 Covr1.2.b.i[0,1]: eta[0,0,1] + eta[0,1,1] + eta[2,1,1] + eta[4,0,0]
   + eta[4,1,0] + theta <= 5
 Covr1.2.b.ii[0,0]: eta[0,0,0] + eta[0,0,1] + eta[0,1,0] + eta[1,0,1]
   + eta[2,0,1] + eta[2,1,0] + eta[4,1,1] + theta <= 7
 Covr1.2.b.ii[0,1]: eta[0,0,0] + eta[0,0,1] + eta[0,1,1] + eta[1,0,0]
   + eta[2,0,0] + eta[2,1,1] + eta[4,1,0] + theta <= 7
 Covr1.2.b.iii[0,0]: eta[0,0,0] + eta[0,1,0] + eta[0,1,1] + eta[1,1,1]
   + eta[2,1,0] + eta[2,1,1] + eta[4,0,1] + theta <= 7
 Covr1.2.b.iii[0,1]: eta[0,0,1] + eta[0,1,0] + eta[0,1,1] + eta[1,1,0]
   + eta[2,1,0] + eta[2,1,1] + eta[4,0,0] + theta <= 7
 Covr1.2.c.i[0,0]: eta[1,0,0] + eta[1,1,0] + eta[2,1,0] + eta[4,0,1]
   + eta[4,1,1] + theta <= 5
 Covr1.2.c.i[0,1]: eta[1,0,1] + eta[1,1,1] + eta[2,1,1] + eta[4,0,0]
   + eta[4,1,0] + theta <= 5
 Covr1.2.c.ii[0,0]: eta[0,0,1] + eta[1,0,0] + eta[1,0,1] + eta[1,1,0]
   + eta[2,0,1] + eta[2,1,0] + eta[4,1,1] + theta <= 7
 Covr1.2.c.ii[0,1]: eta[0,0,0] + eta[1,0,0] + eta[1,0,1] + eta[1,1,1]
   + eta[2,0,0] + eta[2,1,1] + eta[4,1,0] + theta <= 7
 Covr1.2.c.iii[0,0]: eta[0,1,1] + eta[1,0,0] + eta[1,1,0] + eta[1,1,1]
   + eta[2,1,0] + eta[2,1,1] + eta[4,0,1] + theta <= 7
 Covr1.2.c.iii[0,1]: eta[0,1,0] + eta[1,0,1] + eta[1,1,0] + eta[1,1,1]
   + eta[2,1,0] + eta[2,1,1] + eta[4,0,0] + theta <= 7
 Obj1[0,0]: - 2 delt[0,0] + phi[0,0] <= 0
 Obj1[0,1]: - 2 delt[0,1] + phi[0,1] <= 0
 Obj1[1,0]: - 2 delt[1,0] + phi[1,0] <= 0
 Obj1[1,1]: - 2 delt[1,1] + phi[1,1] <= 0
 Obj2[0,0]: 2 delt[0,0] + phi[0,0] <= 2
 Obj2[0,1]: 2 delt[0,1] + phi[0,1] <= 2
 Obj2[1,0]: 2 delt[1,0] + phi[1,0] <= 2
 Obj2[1,1]: 2 delt[1,1] + phi[1,1] <= 2
Bounds
Binaries
 eta[0,0,0] eta[0,0,1] eta[0,1,0] eta[0,1,1] eta[1,0,0] eta[1,0,1]
 eta[1,1,0] eta[1,1,1] eta[2,0,0] eta[2,0,1] eta[2,1,0] eta[2,1,1]
 eta[3,0,0] eta[3,0,1] eta[3,1,0] eta[3,1,1] eta[4,0,0] eta[4,0,1]
 eta[4,1,0] eta[4,1,1] zeta[0] zeta[1] theta
End
