\ Model D-HU-[[1, 0], [0, 0]]
\ LP format - for model browsing. Use MPS format to capture full model detail.
\ Signature: 0x2f58ec454b0bb02a
Maximize
  phi[0,0] + phi[0,1] + phi[1,0] + phi[1,1]
Subject To
 LB[0,0]: c[1,0] - 7.253717900775253 delt[0,0] >= 0
 LB[0,1]: c[1,1] - 0.4508976145667742 delt[0,1] >= 1.32512424163405
 LB[1,0]: c[0,0] >= 0
 LB[1,1]: c[0,1] - 6.582271541330681 delt[1,1] >= 0
 UB[0,0]: c[0,0] + delt[0,0] <= 1
 UB[0,1]: c[0,1] + 6.582271541330681 delt[0,1] <= 7.582271541330681
 UB[1,0]: c[1,0] + 6.253717900775253 delt[1,0] <= 7.253717900775253
 UB[1,1]: c[1,1] + 0.4508976145667742 delt[1,1] <= 2.776021856200825
 PM[0,0]: c[0,0] - c[1,0] + 8.253717900775253 delt[0,0] <= 1
 PM[0,1]: c[0,1] - c[1,1] + 8.033169155897456 delt[0,1]
   <= 6.257147299696631
 PM[1,0]: - c[0,0] + c[1,0] + 7.253717900775253 delt[1,0]
   <= 7.253717900775253
 PM[1,1]: - c[0,1] + c[1,1] + 8.033169155897456 delt[1,1]
   <= 2.776021856200825
 RM[0,0]: c[0,0] - c[1,0] + 7.253717900775253 delt[0,0] - delt[1,0] <= 0
 RM[0,1]: c[0,1] - c[1,1] + 7.033169155897456 delt[0,1] - delt[1,1]
   <= 5.257147299696631
 RM[1,0]: - c[0,0] + c[1,0] + 7.253717900775253 delt[1,0]
   <= 7.253717900775253
 RM[1,1]: - c[0,1] + c[1,1] - delt[0,1] + 7.033169155897456 delt[1,1]
   <= 1.776021856200825
 DB[0,0]: delt[0,0] >= 0
 DB[0,1]: delt[0,1] >= 0
 DB[1,0]: delt[1,0] >= 0
 DB[1,1]: delt[1,1] >= 0
 S1[0]: delt[0,0] + delt[1,0] <= 1
 S1[1]: delt[0,1] + delt[1,1] <= 1
 S2: delt[0,0] + delt[0,1] + delt[1,0] + delt[1,1] >= 1
 LBt[0,0]: c[1,0] - 7.253717900775253 delt[0,0]
   + 75.82271541330681 eta[0,0,0] <= 75.82271541330681
 LBt[0,1]: c[1,1] - 0.4508976145667742 delt[0,1]
   + 75.82271541330681 eta[0,0,1] <= 77.14783965494087
 LBt[1,0]: c[0,0] + 75.82271541330681 eta[0,1,0] <= 75.82271541330681
 LBt[1,1]: c[0,1] - 6.582271541330681 delt[1,1]
   + 75.82271541330681 eta[0,1,1] <= 75.82271541330681
 UBt[0,0]: c[0,0] + delt[0,0] - 75.82271541330681 eta[1,0,0]
   >= -74.82271541330681
 UBt[0,1]: c[0,1] + 6.582271541330681 delt[0,1]
   - 75.82271541330681 eta[1,0,1] >= -68.24044387197613
 UBt[1,0]: c[1,0] + 6.253717900775253 delt[1,0]
   - 75.82271541330681 eta[1,1,0] >= -68.56899751253155
 UBt[1,1]: c[1,1] + 0.4508976145667742 delt[1,1]
   - 75.82271541330681 eta[1,1,1] >= -73.04669355710598
 PMt[0,0]: c[0,0] - c[1,0] + 8.253717900775253 delt[0,0]
   - 75.82271541330681 eta[2,0,0] >= -74.82271541330681
 PMt[0,1]: c[0,1] - c[1,1] + 8.033169155897456 delt[0,1]
   - 75.82271541330681 eta[2,0,1] >= -69.56556811361018
 PMt[1,0]: - c[0,0] + c[1,0] + 7.253717900775253 delt[1,0]
   - 75.82271541330681 eta[2,1,0] >= -68.56899751253155
 PMt[1,1]: - c[0,1] + c[1,1] + 8.033169155897456 delt[1,1]
   - 75.82271541330681 eta[2,1,1] >= -73.04669355710598
 RMt[0,0]: c[0,0] - c[1,0] + 7.253717900775253 delt[0,0] - delt[1,0]
   - 75.82271541330681 eta[3,0,0] >= -75.82271541330681
 RMt[0,1]: c[0,1] - c[1,1] + 7.033169155897456 delt[0,1] - delt[1,1]
   - 75.82271541330681 eta[3,0,1] >= -70.56556811361018
 RMt[1,0]: - c[0,0] + c[1,0] + 7.253717900775253 delt[1,0]
   - 75.82271541330681 eta[3,1,0] >= -68.56899751253155
 RMt[1,1]: - c[0,1] + c[1,1] - delt[0,1] + 7.033169155897456 delt[1,1]
   - 75.82271541330681 eta[3,1,1] >= -74.04669355710598
 DBt[0,0]: delt[0,0] + eta[4,0,0] <= 1
 DBt[0,1]: delt[0,1] + eta[4,0,1] <= 1
 DBt[1,0]: delt[1,0] + eta[4,1,0] <= 1
 DBt[1,1]: delt[1,1] + eta[4,1,1] <= 1
 S1t[0]: delt[0,0] + delt[1,0] - zeta[0] >= 0
 S1t[1]: delt[0,1] + delt[1,1] - zeta[1] >= 0
 S2t: delt[0,0] + delt[0,1] + delt[1,0] + delt[1,1] + 3 theta <= 4
 Tite: eta[0,0,0] + eta[0,0,1] + eta[0,1,0] + eta[0,1,1] + eta[1,0,0]
   + eta[1,0,1] + eta[1,1,0] + eta[1,1,1] + eta[2,0,0] + eta[2,0,1]
   + eta[2,1,0] + eta[2,1,1] + eta[3,0,0] + eta[3,0,1] + eta[3,1,0]
   + eta[3,1,1] + zeta[0] + zeta[1] + theta = 8
 Covr[0,0]: eta[2,0,0] + eta[3,0,0] + zeta[0] <= 2
 Covr[0,1]: eta[2,0,1] + eta[3,0,1] + zeta[1] <= 2
 Covr[1,0]: eta[2,1,0] + eta[3,1,0] + zeta[0] <= 2
 Covr[1,1]: eta[2,1,1] + eta[3,1,1] + zeta[1] <= 2
 Covr[0,0]: eta[2,1,0] + eta[3,1,0] <= 1
 Covr[0,0]: eta[0,0,0] + eta[1,0,0] + eta[2,0,0] + eta[3,0,0] + zeta[0]
   <= 3
 Covr[0,0]: eta[0,0,0] + eta[0,1,0] + eta[2,1,0] + eta[3,1,0] + zeta[0]
   <= 3
 Covr[0,0]: eta[1,0,0] + eta[1,1,0] + eta[2,1,0] + eta[3,1,0] + zeta[0]
   <= 3
 Covr[0,0]: eta[0,0,0] + eta[0,1,0] + eta[1,0,0] + eta[1,1,0] + eta[2,0,0]
   + eta[2,1,0] + eta[3,0,0] + eta[3,1,0] + zeta[0] <= 4
 Covr1[0,0]: eta[0,0,0] + eta[1,0,0] + eta[2,0,0] + eta[3,0,0] <= 3
 Covr1[0,1]: eta[0,0,1] + eta[1,0,1] + eta[2,0,1] + eta[3,0,1] <= 3
 Covr1[1,0]: eta[0,1,0] + eta[1,1,0] + eta[2,1,0] + eta[3,1,0] <= 3
 Covr1[1,1]: eta[0,1,1] + eta[1,1,1] + eta[2,1,1] + eta[3,1,1] <= 3
 Covr1.2.a[0,0]: eta[0,0,0] + eta[1,0,0] + eta[2,0,0] <= 2
 Covr1.2.b.i[0,0]: eta[0,0,0] + eta[0,1,0] + eta[2,1,0] + eta[4,0,1]
   + eta[4,1,1] + theta <= 5
 Covr1.2.b.ii[0,0]: eta[0,0,0] + eta[0,0,1] + eta[0,1,0] + eta[1,0,1]
   + eta[2,0,1] + eta[2,1,0] + eta[4,1,1] + theta <= 7
 Covr1.2.b.iii[0,0]: eta[0,0,0] + eta[0,1,0] + eta[0,1,1] + eta[1,1,1]
   + eta[2,1,0] + eta[2,1,1] + eta[4,0,1] + theta <= 7
 Covr1.2.c.i[0,0]: eta[1,0,0] + eta[1,1,0] + eta[2,1,0] + eta[4,0,1]
   + eta[4,1,1] + theta <= 5
 Covr1.2.c.ii[0,0]: eta[0,0,1] + eta[1,0,0] + eta[1,0,1] + eta[1,1,0]
   + eta[2,0,1] + eta[2,1,0] + eta[4,1,1] + theta <= 7
 Covr1.2.c.iii[0,0]: eta[0,1,1] + eta[1,0,0] + eta[1,1,0] + eta[1,1,1]
   + eta[2,1,0] + eta[2,1,1] + eta[4,0,1] + theta <= 7
 Obj1[0,0]: - 2 delt[0,0] + phi[0,0] <= 0
 Obj1[0,1]: - 2 delt[0,1] + phi[0,1] <= 0
 Obj1[1,0]: - 2 delt[1,0] + phi[1,0] <= 0
 Obj1[1,1]: - 2 delt[1,1] + phi[1,1] <= 0
 Obj2[0,0]: 2 delt[0,0] + phi[0,0] <= 2
 Obj2[0,1]: 2 delt[0,1] + phi[0,1] <= 2
 Obj2[1,0]: 2 delt[1,0] + phi[1,0] <= 2
 Obj2[1,1]: 2 delt[1,1] + phi[1,1] <= 2
Bounds
Binaries
 eta[0,0,0] eta[0,0,1] eta[0,1,0] eta[0,1,1] eta[1,0,0] eta[1,0,1]
 eta[1,1,0] eta[1,1,1] eta[2,0,0] eta[2,0,1] eta[2,1,0] eta[2,1,1]
 eta[3,0,0] eta[3,0,1] eta[3,1,0] eta[3,1,1] eta[4,0,0] eta[4,0,1]
 eta[4,1,0] eta[4,1,1] zeta[0] zeta[1] theta
End
