* Signature: 0x2f58ec454b0bb02a
NAME D-HU-[[1, 0], [0, 0]]
OBJSENSE MAX
ROWS
 N  OBJ
 G  c0      
 G  c1      
 G  c2      
 G  c3      
 L  c4      
 L  c5      
 L  c6      
 L  c7      
 L  c8      
 L  c9      
 L  c10     
 L  c11     
 L  c12     
 L  c13     
 L  c14     
 L  c15     
 G  c16     
 G  c17     
 G  c18     
 G  c19     
 L  c20     
 L  c21     
 G  c22     
 L  c23     
 L  c24     
 L  c25     
 L  c26     
 G  c27     
 G  c28     
 G  c29     
 G  c30     
 G  c31     
 G  c32     
 G  c33     
 G  c34     
 G  c35     
 G  c36     
 G  c37     
 G  c38     
 L  c39     
 L  c40     
 L  c41     
 L  c42     
 G  c43     
 G  c44     
 L  c45     
 E  c46     
 L  c47     
 L  c48     
 L  c49     
 L  c50     
 L  c51     
 L  c52     
 L  c53     
 L  c54     
 L  c55     
 L  c56     
 L  c57     
 L  c58     
 L  c59     
 L  c60     
 L  c61     
 L  c62     
 L  c63     
 L  c64     
 L  c65     
 L  c66     
 L  c67     
 L  c68     
 L  c69     
 L  c70     
 L  c71     
 L  c72     
 L  c73     
 L  c74     
COLUMNS
    c[0,0]    c2        1
    c[0,0]    c4        1
    c[0,0]    c8        1
    c[0,0]    c10       -1
    c[0,0]    c12       1
    c[0,0]    c14       -1
    c[0,0]    c25       1
    c[0,0]    c27       1
    c[0,0]    c31       1
    c[0,0]    c33       -1
    c[0,0]    c35       1
    c[0,0]    c37       -1
    c[0,1]    c3        1
    c[0,1]    c5        1
    c[0,1]    c9        1
    c[0,1]    c11       -1
    c[0,1]    c13       1
    c[0,1]    c15       -1
    c[0,1]    c26       1
    c[0,1]    c28       1
    c[0,1]    c32       1
    c[0,1]    c34       -1
    c[0,1]    c36       1
    c[0,1]    c38       -1
    c[1,0]    c0        1
    c[1,0]    c6        1
    c[1,0]    c8        -1
    c[1,0]    c10       1
    c[1,0]    c12       -1
    c[1,0]    c14       1
    c[1,0]    c23       1
    c[1,0]    c29       1
    c[1,0]    c31       -1
    c[1,0]    c33       1
    c[1,0]    c35       -1
    c[1,0]    c37       1
    c[1,1]    c1        1
    c[1,1]    c7        1
    c[1,1]    c9        -1
    c[1,1]    c11       1
    c[1,1]    c13       -1
    c[1,1]    c15       1
    c[1,1]    c24       1
    c[1,1]    c30       1
    c[1,1]    c32       -1
    c[1,1]    c34       1
    c[1,1]    c36       -1
    c[1,1]    c38       1
    delt[0,0]  c0        -7.2537179007752535e+00
    delt[0,0]  c4        1
    delt[0,0]  c8        8.2537179007752535e+00
    delt[0,0]  c12       7.2537179007752535e+00
    delt[0,0]  c16       1
    delt[0,0]  c20       1
    delt[0,0]  c22       1
    delt[0,0]  c23       -7.2537179007752535e+00
    delt[0,0]  c27       1
    delt[0,0]  c31       8.2537179007752535e+00
    delt[0,0]  c35       7.2537179007752535e+00
    delt[0,0]  c39       1
    delt[0,0]  c43       1
    delt[0,0]  c45       1
    delt[0,0]  c67       -2
    delt[0,0]  c71       2
    delt[0,1]  c1        -4.5089761456677424e-01
    delt[0,1]  c5        6.5822715413306812e+00
    delt[0,1]  c9        8.0331691558974558e+00
    delt[0,1]  c13       7.0331691558974558e+00
    delt[0,1]  c15       -1
    delt[0,1]  c17       1
    delt[0,1]  c21       1
    delt[0,1]  c22       1
    delt[0,1]  c24       -4.5089761456677424e-01
    delt[0,1]  c28       6.5822715413306812e+00
    delt[0,1]  c32       8.0331691558974558e+00
    delt[0,1]  c36       7.0331691558974558e+00
    delt[0,1]  c38       -1
    delt[0,1]  c40       1
    delt[0,1]  c44       1
    delt[0,1]  c45       1
    delt[0,1]  c68       -2
    delt[0,1]  c72       2
    delt[1,0]  c6        6.2537179007752535e+00
    delt[1,0]  c10       7.2537179007752535e+00
    delt[1,0]  c12       -1
    delt[1,0]  c14       7.2537179007752535e+00
    delt[1,0]  c18       1
    delt[1,0]  c20       1
    delt[1,0]  c22       1
    delt[1,0]  c29       6.2537179007752535e+00
    delt[1,0]  c33       7.2537179007752535e+00
    delt[1,0]  c35       -1
    delt[1,0]  c37       7.2537179007752535e+00
    delt[1,0]  c41       1
    delt[1,0]  c43       1
    delt[1,0]  c45       1
    delt[1,0]  c69       -2
    delt[1,0]  c73       2
    delt[1,1]  c3        -6.5822715413306812e+00
    delt[1,1]  c7        4.5089761456677424e-01
    delt[1,1]  c11       8.0331691558974558e+00
    delt[1,1]  c13       -1
    delt[1,1]  c15       7.0331691558974558e+00
    delt[1,1]  c19       1
    delt[1,1]  c21       1
    delt[1,1]  c22       1
    delt[1,1]  c26       -6.5822715413306812e+00
    delt[1,1]  c30       4.5089761456677424e-01
    delt[1,1]  c34       8.0331691558974558e+00
    delt[1,1]  c36       -1
    delt[1,1]  c38       7.0331691558974558e+00
    delt[1,1]  c42       1
    delt[1,1]  c44       1
    delt[1,1]  c45       1
    delt[1,1]  c70       -2
    delt[1,1]  c74       2
    MARKER    'MARKER'                 'INTORG'
    eta[0,0,0]  c23       7.5822715413306810e+01
    eta[0,0,0]  c46       1
    eta[0,0,0]  c52       1
    eta[0,0,0]  c53       1
    eta[0,0,0]  c55       1
    eta[0,0,0]  c56       1
    eta[0,0,0]  c60       1
    eta[0,0,0]  c61       1
    eta[0,0,0]  c62       1
    eta[0,0,0]  c63       1
    eta[0,0,1]  c24       7.5822715413306810e+01
    eta[0,0,1]  c46       1
    eta[0,0,1]  c57       1
    eta[0,0,1]  c62       1
    eta[0,0,1]  c65       1
    eta[0,1,0]  c25       7.5822715413306810e+01
    eta[0,1,0]  c46       1
    eta[0,1,0]  c53       1
    eta[0,1,0]  c55       1
    eta[0,1,0]  c58       1
    eta[0,1,0]  c61       1
    eta[0,1,0]  c62       1
    eta[0,1,0]  c63       1
    eta[0,1,1]  c26       7.5822715413306810e+01
    eta[0,1,1]  c46       1
    eta[0,1,1]  c59       1
    eta[0,1,1]  c63       1
    eta[0,1,1]  c66       1
    eta[1,0,0]  c27       -7.5822715413306810e+01
    eta[1,0,0]  c46       1
    eta[1,0,0]  c52       1
    eta[1,0,0]  c54       1
    eta[1,0,0]  c55       1
    eta[1,0,0]  c56       1
    eta[1,0,0]  c60       1
    eta[1,0,0]  c64       1
    eta[1,0,0]  c65       1
    eta[1,0,0]  c66       1
    eta[1,0,1]  c28       -7.5822715413306810e+01
    eta[1,0,1]  c46       1
    eta[1,0,1]  c57       1
    eta[1,0,1]  c62       1
    eta[1,0,1]  c65       1
    eta[1,1,0]  c29       -7.5822715413306810e+01
    eta[1,1,0]  c46       1
    eta[1,1,0]  c54       1
    eta[1,1,0]  c55       1
    eta[1,1,0]  c58       1
    eta[1,1,0]  c64       1
    eta[1,1,0]  c65       1
    eta[1,1,0]  c66       1
    eta[1,1,1]  c30       -7.5822715413306810e+01
    eta[1,1,1]  c46       1
    eta[1,1,1]  c59       1
    eta[1,1,1]  c63       1
    eta[1,1,1]  c66       1
    eta[2,0,0]  c31       -7.5822715413306810e+01
    eta[2,0,0]  c46       1
    eta[2,0,0]  c47       1
    eta[2,0,0]  c52       1
    eta[2,0,0]  c55       1
    eta[2,0,0]  c56       1
    eta[2,0,0]  c60       1
    eta[2,0,1]  c32       -7.5822715413306810e+01
    eta[2,0,1]  c46       1
    eta[2,0,1]  c48       1
    eta[2,0,1]  c57       1
    eta[2,0,1]  c62       1
    eta[2,0,1]  c65       1
    eta[2,1,0]  c33       -7.5822715413306810e+01
    eta[2,1,0]  c46       1
    eta[2,1,0]  c49       1
    eta[2,1,0]  c51       1
    eta[2,1,0]  c53       1
    eta[2,1,0]  c54       1
    eta[2,1,0]  c55       1
    eta[2,1,0]  c58       1
    eta[2,1,0]  c61       1
    eta[2,1,0]  c62       1
    eta[2,1,0]  c63       1
    eta[2,1,0]  c64       1
    eta[2,1,0]  c65       1
    eta[2,1,0]  c66       1
    eta[2,1,1]  c34       -7.5822715413306810e+01
    eta[2,1,1]  c46       1
    eta[2,1,1]  c50       1
    eta[2,1,1]  c59       1
    eta[2,1,1]  c63       1
    eta[2,1,1]  c66       1
    eta[3,0,0]  c35       -7.5822715413306810e+01
    eta[3,0,0]  c46       1
    eta[3,0,0]  c47       1
    eta[3,0,0]  c52       1
    eta[3,0,0]  c55       1
    eta[3,0,0]  c56       1
    eta[3,0,1]  c36       -7.5822715413306810e+01
    eta[3,0,1]  c46       1
    eta[3,0,1]  c48       1
    eta[3,0,1]  c57       1
    eta[3,1,0]  c37       -7.5822715413306810e+01
    eta[3,1,0]  c46       1
    eta[3,1,0]  c49       1
    eta[3,1,0]  c51       1
    eta[3,1,0]  c53       1
    eta[3,1,0]  c54       1
    eta[3,1,0]  c55       1
    eta[3,1,0]  c58       1
    eta[3,1,1]  c38       -7.5822715413306810e+01
    eta[3,1,1]  c46       1
    eta[3,1,1]  c50       1
    eta[3,1,1]  c59       1
    eta[4,0,0]  c39       1
    eta[4,0,1]  c40       1
    eta[4,0,1]  c61       1
    eta[4,0,1]  c63       1
    eta[4,0,1]  c64       1
    eta[4,0,1]  c66       1
    eta[4,1,0]  c41       1
    eta[4,1,1]  c42       1
    eta[4,1,1]  c61       1
    eta[4,1,1]  c62       1
    eta[4,1,1]  c64       1
    eta[4,1,1]  c65       1
    zeta[0]   c43       -1
    zeta[0]   c46       1
    zeta[0]   c47       1
    zeta[0]   c49       1
    zeta[0]   c52       1
    zeta[0]   c53       1
    zeta[0]   c54       1
    zeta[0]   c55       1
    zeta[1]   c44       -1
    zeta[1]   c46       1
    zeta[1]   c48       1
    zeta[1]   c50       1
    theta     c45       3
    theta     c46       1
    theta     c61       1
    theta     c62       1
    theta     c63       1
    theta     c64       1
    theta     c65       1
    theta     c66       1
    MARKER    'MARKER'                 'INTEND'
    phi[0,0]  OBJ       1
    phi[0,0]  c67       1
    phi[0,0]  c71       1
    phi[0,1]  OBJ       1
    phi[0,1]  c68       1
    phi[0,1]  c72       1
    phi[1,0]  OBJ       1
    phi[1,0]  c69       1
    phi[1,0]  c73       1
    phi[1,1]  OBJ       1
    phi[1,1]  c70       1
    phi[1,1]  c74       1
RHS
    RHS1      c1        1.3251242416340503e+00
    RHS1      c4        1
    RHS1      c5        7.5822715413306812e+00
    RHS1      c6        7.2537179007752535e+00
    RHS1      c7        2.7760218562008245e+00
    RHS1      c8        1
    RHS1      c9        6.2571472996966309e+00
    RHS1      c10       7.2537179007752535e+00
    RHS1      c11       2.7760218562008245e+00
    RHS1      c13       5.2571472996966309e+00
    RHS1      c14       7.2537179007752535e+00
    RHS1      c15       1.7760218562008245e+00
    RHS1      c20       1
    RHS1      c21       1
    RHS1      c22       1
    RHS1      c23       7.5822715413306810e+01
    RHS1      c24       7.7147839654940867e+01
    RHS1      c25       7.5822715413306810e+01
    RHS1      c26       7.5822715413306810e+01
    RHS1      c27       -7.4822715413306810e+01
    RHS1      c28       -6.8240443871976126e+01
    RHS1      c29       -6.8568997512531553e+01
    RHS1      c30       -7.3046693557105982e+01
    RHS1      c31       -7.4822715413306810e+01
    RHS1      c32       -6.9565568113610183e+01
    RHS1      c33       -6.8568997512531553e+01
    RHS1      c34       -7.3046693557105982e+01
    RHS1      c35       -7.5822715413306810e+01
    RHS1      c36       -7.0565568113610183e+01
    RHS1      c37       -6.8568997512531553e+01
    RHS1      c38       -7.4046693557105982e+01
    RHS1      c39       1
    RHS1      c40       1
    RHS1      c41       1
    RHS1      c42       1
    RHS1      c45       4
    RHS1      c46       8
    RHS1      c47       2
    RHS1      c48       2
    RHS1      c49       2
    RHS1      c50       2
    RHS1      c51       1
    RHS1      c52       3
    RHS1      c53       3
    RHS1      c54       3
    RHS1      c55       4
    RHS1      c56       3
    RHS1      c57       3
    RHS1      c58       3
    RHS1      c59       3
    RHS1      c60       2
    RHS1      c61       5
    RHS1      c62       7
    RHS1      c63       7
    RHS1      c64       5
    RHS1      c65       7
    RHS1      c66       7
    RHS1      c71       2
    RHS1      c72       2
    RHS1      c73       2
    RHS1      c74       2
BOUNDS
 BV BND1      eta[0,0,0]
 BV BND1      eta[0,0,1]
 BV BND1      eta[0,1,0]
 BV BND1      eta[0,1,1]
 BV BND1      eta[1,0,0]
 BV BND1      eta[1,0,1]
 BV BND1      eta[1,1,0]
 BV BND1      eta[1,1,1]
 BV BND1      eta[2,0,0]
 BV BND1      eta[2,0,1]
 BV BND1      eta[2,1,0]
 BV BND1      eta[2,1,1]
 BV BND1      eta[3,0,0]
 BV BND1      eta[3,0,1]
 BV BND1      eta[3,1,0]
 BV BND1      eta[3,1,1]
 BV BND1      eta[4,0,0]
 BV BND1      eta[4,0,1]
 BV BND1      eta[4,1,0]
 BV BND1      eta[4,1,1]
 BV BND1      zeta[0] 
 BV BND1      zeta[1] 
 BV BND1      theta   
ENDATA
