\ Model D-RU-((0, 1), (0, 0))
\ LP format - for model browsing. Use MPS format to capture full model detail.
\ Signature: 0x60ddbda297cf803c
Maximize
  phi[0,0] + phi[0,1] + phi[1,0] + phi[1,1]
Subject To
 LB[0,0]: c[1,0] - 9 delt[0,0] >= 0
 LB[0,1]: c[1,1] - 1.447438823983441 delt[0,1] >= 6.999451783666967
 LB[1,0]: c[0,0] - 6.425189614745534 delt[1,0] >= 0
 LB[1,1]: c[0,1] - 7.234540783698244 delt[1,1] >= 0
 UB[0,0]: c[0,0] + 5.425189614745534 delt[0,0] <= 6.425189614745534
 UB[0,1]: c[0,1] + 6.881785588995617 delt[0,1] <= 8.432201341961882
 UB[1,0]: c[1,0] + 10 delt[1,0] <= 10
 UB[1,1]: c[1,1] + 1.800194018686067 delt[1,1] <= 9.997306360616673
 RM[0,0]: c[0,0] - c[1,0] + 15.42518961474553 delt[0,0]
   <= 6.425189614745534
 RM[0,1]: c[0,1] - c[1,1] + 8.681979607681685 delt[0,1]
   - 1.197660558263638 delt[1,1] <= 0.235089
 RM[1,0]: - c[0,0] + c[1,0] - delt[0,0] + 15.42518961474553 delt[1,0] <= 9
 RM[1,1]: - c[0,1] + c[1,1] - 1.550415752966265 delt[0,1]
   + 8.681979607681685 delt[1,1] <= 8.446890607650408
 DB[0,0]: delt[0,0] >= 0
 DB[0,1]: delt[0,1] >= 0
 DB[1,0]: delt[1,0] >= 0
 DB[1,1]: delt[1,1] >= 0
 S1[0]: delt[0,0] + delt[1,0] <= 1
 S1[1]: delt[0,1] + delt[1,1] <= 1
 S2: delt[0,0] + delt[0,1] + delt[1,0] + delt[1,1] >= 1
 LBt[0,0]: c[1,0] - 9 delt[0,0] + 100 eta[0,0,0] <= 100
 LBt[0,1]: c[1,1] - 1.447438823983441 delt[0,1] + 100 eta[0,0,1]
   <= 106.999451783667
 LBt[1,0]: c[0,0] - 6.425189614745534 delt[1,0] + 100 eta[0,1,0] <= 100
 LBt[1,1]: c[0,1] - 7.234540783698244 delt[1,1] + 100 eta[0,1,1] <= 100
 UBt[0,0]: c[0,0] + 5.425189614745534 delt[0,0] - 100 eta[1,0,0]
   >= -93.57481038525447
 UBt[0,1]: c[0,1] + 6.881785588995617 delt[0,1] - 100 eta[1,0,1]
   >= -91.56779865803811
 UBt[1,0]: c[1,0] + 10 delt[1,0] - 100 eta[1,1,0] >= -90
 UBt[1,1]: c[1,1] + 1.800194018686067 delt[1,1] - 100 eta[1,1,1]
   >= -90.00269363938332
 RMt[0,0]: c[0,0] - c[1,0] + 15.42518961474553 delt[0,0] - 100 eta[2,0,0]
   >= -93.57481038525447
 RMt[0,1]: c[0,1] - c[1,1] + 8.681979607681685 delt[0,1]
   - 1.197660558263638 delt[1,1] - 100 eta[2,0,1] >= -99.76491099996872
 RMt[1,0]: - c[0,0] + c[1,0] - delt[0,0] + 15.42518961474553 delt[1,0]
   - 100 eta[2,1,0] >= -91
 RMt[1,1]: - c[0,1] + c[1,1] - 1.550415752966265 delt[0,1]
   + 8.681979607681685 delt[1,1] - 100 eta[2,1,1] >= -91.5531093923496
 DBt[0,0]: delt[0,0] + eta[3,0,0] <= 1
 DBt[0,1]: delt[0,1] + eta[3,0,1] <= 1
 DBt[1,0]: delt[1,0] + eta[3,1,0] <= 1
 DBt[1,1]: delt[1,1] + eta[3,1,1] <= 1
 S1t[0]: delt[0,0] + delt[1,0] - zeta[0] >= 0
 S1t[1]: delt[0,1] + delt[1,1] - zeta[1] >= 0
 S2t: delt[0,0] + delt[0,1] + delt[1,0] + delt[1,1] + 3 zeta[2] <= 4
 Tite: eta[0,0,0] + eta[0,0,1] + eta[0,1,0] + eta[0,1,1] + eta[1,0,0]
   + eta[1,0,1] + eta[1,1,0] + eta[1,1,1] + eta[2,0,0] + eta[2,0,1]
   + eta[2,1,0] + eta[2,1,1] + eta[3,0,0] + eta[3,0,1] + eta[3,1,0]
   + eta[3,1,1] + zeta[0] + zeta[1] + zeta[2] = 8
 Covr2.1.A[0]: eta[3,0,1] + eta[3,1,1] + zeta[0] + zeta[2] <= 3
 Covr2.1.A[1]: eta[3,0,0] + eta[3,1,0] + zeta[1] + zeta[2] <= 3
 Covr2.1.B.i[0,0]: eta[0,0,0] + eta[1,0,0] + eta[2,0,0] + eta[3,0,0]
   + zeta[0] <= 4
 Covr2.1.B.i[0,1]: eta[0,0,1] + eta[1,0,1] + eta[2,0,1] + eta[3,0,1]
   + zeta[1] <= 4
 Covr2.1.B.i[1,0]: eta[0,1,0] + eta[1,1,0] + eta[2,1,0] + eta[3,1,0]
   + zeta[0] <= 4
 Covr2.1.B.i[1,1]: eta[0,1,1] + eta[1,1,1] + eta[2,1,1] + eta[3,1,1]
   + zeta[1] <= 4
 Covr2.1.B.ii-iii[0,0]: eta[0,0,0] + eta[0,1,0] + eta[1,0,0] + eta[1,1,0]
   + zeta[0] <= 4
 Covr2.1.B.ii-iii[0,1]: eta[0,0,1] + eta[0,1,1] + eta[1,0,1] + eta[1,1,1]
   + zeta[1] <= 4
 Covr2.1.B.ii-iii[1,0]: eta[2,0,0] + eta[2,1,0] + eta[3,0,0] + eta[3,1,0]
   + zeta[0] <= 4
 Covr2.1.B.ii-iii[1,1]: eta[2,0,1] + eta[2,1,1] + eta[3,0,1] + eta[3,1,1]
   + zeta[1] <= 4
 Covr2.1.B.iv-vii[0,0,0]: eta[0,0,0] + eta[0,1,0] + eta[2,1,0] + eta[3,0,0]
   + zeta[0] <= 4
 Covr2.1.B.iv-vii[0,0,1]: eta[0,0,1] + eta[0,1,1] + eta[2,1,1] + eta[3,0,1]
   + zeta[1] <= 4
 Covr2.1.B.iv-vii[0,1,0]: eta[0,0,0] + eta[0,1,0] + eta[2,0,0] + eta[3,1,0]
   + zeta[0] <= 4
 Covr2.1.B.iv-vii[0,1,1]: eta[0,0,1] + eta[0,1,1] + eta[2,0,1] + eta[3,1,1]
   + zeta[1] <= 4
 Covr2.1.B.iv-vii[1,0,0]: eta[1,0,0] + eta[1,1,0] + eta[2,1,0] + eta[3,0,0]
   + zeta[0] <= 4
 Covr2.1.B.iv-vii[1,0,1]: eta[1,0,1] + eta[1,1,1] + eta[2,1,1] + eta[3,0,1]
   + zeta[1] <= 4
 Covr2.1.B.iv-vii[1,1,0]: eta[1,0,0] + eta[1,1,0] + eta[2,0,0] + eta[3,1,0]
   + zeta[0] <= 4
 Covr2.1.B.iv-vii[1,1,1]: eta[1,0,1] + eta[1,1,1] + eta[2,0,1] + eta[3,1,1]
   + zeta[1] <= 4
 Covr2.1.B.iv-vii[2,0,0]: eta[0,0,0] + eta[1,1,0] + eta[2,0,0] + eta[2,1,0]
   + zeta[0] <= 4
 Covr2.1.B.iv-vii[2,0,1]: eta[0,0,1] + eta[1,1,1] + eta[2,0,1] + eta[2,1,1]
   + zeta[1] <= 4
 Covr2.1.B.iv-vii[2,1,0]: eta[0,1,0] + eta[1,0,0] + eta[2,0,0] + eta[2,1,0]
   + zeta[0] <= 4
 Covr2.1.B.iv-vii[2,1,1]: eta[0,1,1] + eta[1,0,1] + eta[2,0,1] + eta[2,1,1]
   + zeta[1] <= 4
 Covr2.1.B.iv-vii[3,0,0]: eta[0,0,0] + eta[1,1,0] + eta[3,0,0] + eta[3,1,0]
   + zeta[0] <= 4
 Covr2.1.B.iv-vii[3,0,1]: eta[0,0,1] + eta[1,1,1] + eta[3,0,1] + eta[3,1,1]
   + zeta[1] <= 4
 Covr2.1.B.iv-vii[3,1,0]: eta[0,1,0] + eta[1,0,0] + eta[3,0,0] + eta[3,1,0]
   + zeta[0] <= 4
 Covr2.1.B.iv-vii[3,1,1]: eta[0,1,1] + eta[1,0,1] + eta[3,0,1] + eta[3,1,1]
   + zeta[1] <= 4
 Covr2.1.C[0]: eta[0,0,0] + eta[0,1,0] + eta[1,0,0] + eta[1,1,0]
   + eta[2,0,0] + eta[2,1,0] + eta[3,0,0] + eta[3,1,0] + zeta[0] <= 5
 Covr2.1.C[1]: eta[0,0,1] + eta[0,1,1] + eta[1,0,1] + eta[1,1,1]
   + eta[2,0,1] + eta[2,1,1] + eta[3,0,1] + eta[3,1,1] + zeta[1] <= 5
 Covr2.1.B.i[0,0]: eta[0,0,0] + eta[1,0,0] + eta[2,0,0] + eta[3,0,0]
   + eta[3,0,1] + eta[3,1,1] + zeta[0] + zeta[2] <= 6
 Covr2.1.B.i[0,1]: eta[0,0,1] + eta[1,0,1] + eta[2,0,1] + eta[3,0,0]
   + eta[3,0,1] + eta[3,1,0] + zeta[1] + zeta[2] <= 6
 Covr2.1.B.i[1,0]: eta[0,1,0] + eta[1,1,0] + eta[2,1,0] + eta[3,0,1]
   + eta[3,1,0] + eta[3,1,1] + zeta[0] + zeta[2] <= 6
 Covr2.1.B.i[1,1]: eta[0,1,1] + eta[1,1,1] + eta[2,1,1] + eta[3,0,0]
   + eta[3,1,0] + eta[3,1,1] + zeta[1] + zeta[2] <= 6
 Covr2.1.D.ii-iii[0,0]: eta[0,0,0] + eta[0,1,0] + eta[1,0,0] + eta[1,1,0]
   + eta[3,0,1] + eta[3,1,1] + zeta[0] + zeta[2] <= 6
 Covr2.1.D.ii-iii[0,1]: eta[0,0,1] + eta[0,1,1] + eta[1,0,1] + eta[1,1,1]
   + eta[3,0,0] + eta[3,1,0] + zeta[1] + zeta[2] <= 6
 Covr2.1.D.ii-iii[1,0]: eta[2,0,0] + eta[2,1,0] + eta[3,0,0] + eta[3,0,1]
   + eta[3,1,0] + eta[3,1,1] + zeta[0] + zeta[2] <= 6
 Covr2.1.D.ii-iii[1,1]: eta[2,0,1] + eta[2,1,1] + eta[3,0,0] + eta[3,0,1]
   + eta[3,1,0] + eta[3,1,1] + zeta[1] + zeta[2] <= 6
 Covr2.1.D.iv-vii[0,0,0]: eta[0,0,0] + eta[0,1,0] + eta[2,1,0] + eta[3,0,0]
   + eta[3,0,1] + eta[3,1,1] + zeta[0] + zeta[2] <= 6
 Covr2.1.D.iv-vii[0,0,1]: eta[0,0,1] + eta[0,1,1] + eta[2,1,1] + eta[3,0,0]
   + eta[3,0,1] + eta[3,1,0] + zeta[1] + zeta[2] <= 6
 Covr2.1.D.iv-vii[0,1,0]: eta[0,0,0] + eta[0,1,0] + eta[2,0,0] + eta[3,0,1]
   + eta[3,1,0] + eta[3,1,1] + zeta[0] + zeta[2] <= 6
 Covr2.1.D.iv-vii[0,1,1]: eta[0,0,1] + eta[0,1,1] + eta[2,0,1] + eta[3,0,0]
   + eta[3,1,0] + eta[3,1,1] + zeta[1] + zeta[2] <= 6
 Covr2.1.D.iv-vii[1,0,0]: eta[1,0,0] + eta[1,1,0] + eta[2,1,0] + eta[3,0,0]
   + eta[3,0,1] + eta[3,1,1] + zeta[0] + zeta[2] <= 6
 Covr2.1.D.iv-vii[1,0,1]: eta[1,0,1] + eta[1,1,1] + eta[2,1,1] + eta[3,0,0]
   + eta[3,0,1] + eta[3,1,0] + zeta[1] + zeta[2] <= 6
 Covr2.1.D.iv-vii[1,1,0]: eta[1,0,0] + eta[1,1,0] + eta[2,0,0] + eta[3,0,1]
   + eta[3,1,0] + eta[3,1,1] + zeta[0] + zeta[2] <= 6
 Covr2.1.D.iv-vii[1,1,1]: eta[1,0,1] + eta[1,1,1] + eta[2,0,1] + eta[3,0,0]
   + eta[3,1,0] + eta[3,1,1] + zeta[1] + zeta[2] <= 6
 Covr2.1.D.iv-vii[2,0,0]: eta[0,0,0] + eta[1,1,0] + eta[2,0,0] + eta[2,1,0]
   + eta[3,0,1] + eta[3,1,1] + zeta[0] + zeta[2] <= 6
 Covr2.1.D.iv-vii[2,0,1]: eta[0,0,1] + eta[1,1,1] + eta[2,0,1] + eta[2,1,1]
   + eta[3,0,0] + eta[3,1,0] + zeta[1] + zeta[2] <= 6
 Covr2.1.D.iv-vii[2,1,0]: eta[0,1,0] + eta[1,0,0] + eta[2,0,0] + eta[2,1,0]
   + eta[3,0,1] + eta[3,1,1] + zeta[0] + zeta[2] <= 6
 Covr2.1.D.iv-vii[2,1,1]: eta[0,1,1] + eta[1,0,1] + eta[2,0,1] + eta[2,1,1]
   + eta[3,0,0] + eta[3,1,0] + zeta[1] + zeta[2] <= 6
 Covr2.1.D.iv-vii[3,0,0]: eta[0,0,0] + eta[1,1,0] + eta[3,0,0] + eta[3,0,1]
   + eta[3,1,0] + eta[3,1,1] + zeta[0] + zeta[2] <= 6
 Covr2.1.D.iv-vii[3,0,1]: eta[0,0,1] + eta[1,1,1] + eta[3,0,0] + eta[3,0,1]
   + eta[3,1,0] + eta[3,1,1] + zeta[1] + zeta[2] <= 6
 Covr2.1.D.iv-vii[3,1,0]: eta[0,1,0] + eta[1,0,0] + eta[3,0,0] + eta[3,0,1]
   + eta[3,1,0] + eta[3,1,1] + zeta[0] + zeta[2] <= 6
 Covr2.1.D.iv-vii[3,1,1]: eta[0,1,1] + eta[1,0,1] + eta[3,0,0] + eta[3,0,1]
   + eta[3,1,0] + eta[3,1,1] + zeta[1] + zeta[2] <= 6
 Covr2.1.D.C[0]: eta[0,0,0] + eta[0,1,0] + eta[1,0,0] + eta[1,1,0]
   + eta[2,0,0] + eta[2,1,0] + eta[3,0,0] + eta[3,0,1] + eta[3,1,0]
   + eta[3,1,1] + zeta[0] + zeta[2] <= 7
 Covr2.1.D.C[1]: eta[0,0,1] + eta[0,1,1] + eta[1,0,1] + eta[1,1,1]
   + eta[2,0,1] + eta[2,1,1] + eta[3,0,0] + eta[3,0,1] + eta[3,1,0]
   + eta[3,1,1] + zeta[1] + zeta[2] <= 7
 Covr2.1.E.iii[0]: eta[2,0,0] + eta[2,1,0] + eta[3,0,0] + eta[3,1,0]
   + zeta[0] + zeta[1] + zeta[2] <= 5
 Covr2.1.E.iii[1]: eta[2,0,1] + eta[2,1,1] + eta[3,0,1] + eta[3,1,1]
   + zeta[0] + zeta[1] + zeta[2] <= 5
 Covr2.1.E.vii[0,0]: eta[0,1,0] + eta[1,0,0] + eta[3,0,0] + eta[3,1,0]
   + zeta[0] + zeta[1] + zeta[2] <= 5
 Covr2.1.E.vii[0,1]: eta[0,1,1] + eta[1,0,1] + eta[3,0,1] + eta[3,1,1]
   + zeta[0] + zeta[1] + zeta[2] <= 5
 Covr2.1.E.vii[1,0]: eta[0,0,0] + eta[1,1,0] + eta[3,0,0] + eta[3,1,0]
   + zeta[0] + zeta[1] + zeta[2] <= 5
 Covr2.1.E.vii[1,1]: eta[0,0,1] + eta[1,1,1] + eta[3,0,1] + eta[3,1,1]
   + zeta[0] + zeta[1] + zeta[2] <= 5
 Covr2.1.E.C[0]: eta[0,0,0] + eta[0,1,0] + eta[1,0,0] + eta[1,1,0]
   + eta[2,0,0] + eta[2,1,0] + eta[3,0,0] + eta[3,1,0] + zeta[0] + zeta[1]
   + zeta[2] <= 6
 Covr2.1.E.C[1]: eta[0,0,1] + eta[0,1,1] + eta[1,0,1] + eta[1,1,1]
   + eta[2,0,1] + eta[2,1,1] + eta[3,0,1] + eta[3,1,1] + zeta[0] + zeta[1]
   + zeta[2] <= 6
 Covr2.1.F.iii[0]: eta[2,0,0] + eta[2,1,0] + eta[3,0,0] + eta[3,0,1]
   + eta[3,1,0] + eta[3,1,1] + zeta[0] + zeta[1] + zeta[2] <= 6
 Covr2.1.F.iii[1]: eta[2,0,1] + eta[2,1,1] + eta[3,0,0] + eta[3,0,1]
   + eta[3,1,0] + eta[3,1,1] + zeta[0] + zeta[1] + zeta[2] <= 6
 Covr2.1.F.vii[0,0]: eta[0,1,0] + eta[1,0,0] + eta[3,0,0] + eta[3,0,1]
   + eta[3,1,0] + eta[3,1,1] + zeta[0] + zeta[1] + zeta[2] <= 6
 Covr2.1.F.vii[0,1]: eta[0,1,1] + eta[1,0,1] + eta[3,0,0] + eta[3,0,1]
   + eta[3,1,0] + eta[3,1,1] + zeta[0] + zeta[1] + zeta[2] <= 6
 Covr2.1.F.vii[1,0]: eta[0,0,0] + eta[1,1,0] + eta[3,0,0] + eta[3,0,1]
   + eta[3,1,0] + eta[3,1,1] + zeta[0] + zeta[1] + zeta[2] <= 6
 Covr2.1.F.vii[1,1]: eta[0,0,1] + eta[1,1,1] + eta[3,0,0] + eta[3,0,1]
   + eta[3,1,0] + eta[3,1,1] + zeta[0] + zeta[1] + zeta[2] <= 6
 Covr2.1.F.C[0]: eta[0,0,0] + eta[0,1,0] + eta[1,0,0] + eta[1,1,0]
   + eta[2,0,0] + eta[2,1,0] + eta[3,0,0] + eta[3,0,1] + eta[3,1,0]
   + eta[3,1,1] + zeta[0] + zeta[1] + zeta[2] <= 7
 Covr2.1.F.C[1]: eta[0,0,1] + eta[0,1,1] + eta[1,0,1] + eta[1,1,1]
   + eta[2,0,1] + eta[2,1,1] + eta[3,0,0] + eta[3,0,1] + eta[3,1,0]
   + eta[3,1,1] + zeta[0] + zeta[1] + zeta[2] <= 7
 Covr2.2.A.i[1,0]: eta[0,0,0] + eta[1,0,0] + eta[2,0,0] + eta[3,0,0] <= 3
 Covr2.2.A.ii[1,0]: eta[0,0,0] + eta[0,1,0] + eta[1,0,0] + eta[1,1,0]
   + eta[2,0,0] + eta[2,1,0] + eta[3,0,0] + eta[3,1,0] + zeta[1] + zeta[2]
   <= 5
 Covr2.2.B.i[1,0]: eta[0,1,0] + eta[1,1,0] + eta[2,1,0] + zeta[0] <= 3
 Covr2.2.B.iii[1,0]: eta[2,0,0] + eta[2,1,0] + eta[3,0,0] + zeta[0] <= 3
 Covr2.2.B.iv-v[0,1,0]: eta[0,0,0] + eta[0,1,0] + eta[2,0,0] + zeta[0]
   <= 3
 Covr2.2.B.iv-v[1,1,0]: eta[1,0,0] + eta[1,1,0] + eta[2,0,0] + zeta[0]
   <= 3
 Covr2.2.B.vii[0,1,0]: eta[0,1,0] + eta[1,0,0] + eta[3,0,0] + zeta[0] <= 3
 Covr2.2.B.vii[1,1,0]: eta[0,0,0] + eta[1,1,0] + eta[3,0,0] + zeta[0] <= 3
 Covr2.1.C[1,0]: eta[0,0,0] + eta[0,1,0] + eta[1,0,0] + eta[1,1,0]
   + eta[2,0,0] + eta[2,1,0] + eta[3,0,0] + zeta[0] <= 4
 Covr2.2.D.i[1,0]: eta[0,1,0] + eta[1,1,0] + eta[2,1,0] + eta[3,0,1]
   + eta[3,1,1] + zeta[0] + zeta[2] <= 5
 Covr2.2.D.iii[1,0]: eta[2,0,0] + eta[2,1,0] + eta[3,0,0] + eta[3,0,1]
   + eta[3,1,1] + zeta[0] + zeta[2] <= 5
 Covr2.2.D.iv-v[0,1,0]: eta[0,0,0] + eta[0,1,0] + eta[2,0,0] + eta[3,0,1]
   + eta[3,1,1] + zeta[0] + zeta[2] <= 5
 Covr2.2.D.iv-v[1,1,0]: eta[1,0,0] + eta[1,1,0] + eta[2,0,0] + eta[3,0,1]
   + eta[3,1,1] + zeta[0] + zeta[2] <= 5
 Covr2.2.D.vii[0,1,0]: eta[0,1,0] + eta[1,0,0] + eta[3,0,0] + eta[3,0,1]
   + eta[3,1,1] + zeta[0] + zeta[2] <= 5
 Covr2.2.D.vii[1,1,0]: eta[0,0,0] + eta[1,1,0] + eta[3,0,0] + eta[3,0,1]
   + eta[3,1,1] + zeta[0] + zeta[2] <= 5
 Covr2.1.D.C[1,0]: eta[0,0,0] + eta[0,1,0] + eta[1,0,0] + eta[1,1,0]
   + eta[2,0,0] + eta[2,1,0] + eta[3,0,0] + eta[3,0,1] + eta[3,1,1]
   + zeta[0] + zeta[2] <= 6
 Obj1[0,0]: - 2 delt[0,0] + phi[0,0] <= 0
 Obj1[0,1]: - 2 delt[0,1] + phi[0,1] <= 0
 Obj1[1,0]: - 2 delt[1,0] + phi[1,0] <= 0
 Obj1[1,1]: - 2 delt[1,1] + phi[1,1] <= 0
 Obj2[0,0]: 2 delt[0,0] + phi[0,0] <= 2
 Obj2[0,1]: 2 delt[0,1] + phi[0,1] <= 2
 Obj2[1,0]: 2 delt[1,0] + phi[1,0] <= 2
 Obj2[1,1]: 2 delt[1,1] + phi[1,1] <= 2
Bounds
Binaries
 eta[0,0,0] eta[0,0,1] eta[0,1,0] eta[0,1,1] eta[1,0,0] eta[1,0,1]
 eta[1,1,0] eta[1,1,1] eta[2,0,0] eta[2,0,1] eta[2,1,0] eta[2,1,1]
 eta[3,0,0] eta[3,0,1] eta[3,1,0] eta[3,1,1] zeta[0] zeta[1] zeta[2]
End
