\ Model D-RU-[[1, 1], [0, 0]]
\ LP format - for model browsing. Use MPS format to capture full model detail.
\ Signature: 0x4cf097ecbbdeb627
Maximize
  phi[0,0] + phi[0,1] + phi[1,0] + phi[1,1]
Subject To
 LB[0,0]: c[1,0] - delt[0,0] >= 1
 LB[0,1]: c[1,1] - 4.944732376689038 delt[0,1] >= 0
 LB[1,0]: c[0,0] - delt[1,0] >= 0
 LB[1,1]: c[0,1] + 0.1597937462645262 delt[1,1] >= 1.876108479210018
 UB[0,0]: c[0,0] + delt[0,0] <= 1
 UB[0,1]: c[0,1] + 3.235741094798566 delt[0,1] <= 6.111849574008584
 UB[1,0]: c[1,0] + delt[1,0] <= 2
 UB[1,1]: c[1,1] + 1.549197535625946 delt[1,1] <= 5.944732376689038
 PM[0,0]: c[0,0] - c[1,0] + 2 delt[0,0] <= 0
 PM[0,1]: c[0,1] - c[1,1] + 9.180473471487606 delt[0,1]
   <= 6.111849574008584
 PM[1,0]: - c[0,0] + c[1,0] + 2 delt[1,0] <= 2
 PM[1,1]: - c[0,1] + c[1,1] + 5.784938630424512 delt[1,1]
   <= 4.068623897479021
 RM[0,0]: c[0,0] - c[1,0] + 2 delt[0,0] <= 0
 RM[0,1]: c[0,1] - c[1,1] + 4.784938630424512 delt[0,1]
   - 4.395534841063093 delt[1,1] <= 1.716314732945491
 RM[1,0]: - c[0,0] + c[1,0] + 2 delt[1,0] <= 2
 RM[1,1]: - c[0,1] + c[1,1] - delt[0,1] + 4.784938630424512 delt[1,1]
   <= 3.068623897479021
 DB[0,0]: delt[0,0] >= 0
 DB[0,1]: delt[0,1] >= 0
 DB[1,0]: delt[1,0] >= 0
 DB[1,1]: delt[1,1] >= 0
 S1[0]: delt[0,0] + delt[1,0] <= 1
 S1[1]: delt[0,1] + delt[1,1] <= 1
 S2: delt[0,0] + delt[0,1] + delt[1,0] + delt[1,1] >= 1
 LBt[0,0]: c[1,0] - delt[0,0] + 61.11849574008584 eta[0,0,0]
   <= 62.11849574008584
 LBt[0,1]: c[1,1] - 4.944732376689038 delt[0,1]
   + 61.11849574008584 eta[0,0,1] <= 61.11849574008584
 LBt[1,0]: c[0,0] - delt[1,0] + 61.11849574008584 eta[0,1,0]
   <= 61.11849574008584
 LBt[1,1]: c[0,1] + 0.1597937462645262 delt[1,1]
   + 61.11849574008584 eta[0,1,1] <= 62.99460421929586
 UBt[0,0]: c[0,0] + delt[0,0] - 61.11849574008584 eta[1,0,0]
   >= -60.11849574008584
 UBt[0,1]: c[0,1] + 3.235741094798566 delt[0,1]
   - 61.11849574008584 eta[1,0,1] >= -55.00664616607726
 UBt[1,0]: c[1,0] + delt[1,0] - 61.11849574008584 eta[1,1,0]
   >= -59.11849574008584
 UBt[1,1]: c[1,1] + 1.549197535625946 delt[1,1]
   - 61.11849574008584 eta[1,1,1] >= -55.1737633633968
 PMt[0,0]: c[0,0] - c[1,0] + 2 delt[0,0] - 61.11849574008584 eta[2,0,0]
   >= -61.11849574008584
 PMt[0,1]: c[0,1] - c[1,1] + 9.180473471487606 delt[0,1]
   - 61.11849574008584 eta[2,0,1] >= -55.00664616607726
 PMt[1,0]: - c[0,0] + c[1,0] + 2 delt[1,0] - 61.11849574008584 eta[2,1,0]
   >= -59.11849574008584
 PMt[1,1]: - c[0,1] + c[1,1] + 5.784938630424512 delt[1,1]
   - 61.11849574008584 eta[2,1,1] >= -57.04987184260682
 RMt[0,0]: c[0,0] - c[1,0] + 2 delt[0,0] - 61.11849574008584 eta[3,0,0]
   >= -61.11849574008584
 RMt[0,1]: c[0,1] - c[1,1] + 4.784938630424512 delt[0,1]
   - 4.395534841063093 delt[1,1] - 61.11849574008584 eta[3,0,1]
   >= -59.40218100714035
 RMt[1,0]: - c[0,0] + c[1,0] + 2 delt[1,0] - 61.11849574008584 eta[3,1,0]
   >= -59.11849574008584
 RMt[1,1]: - c[0,1] + c[1,1] - delt[0,1] + 4.784938630424512 delt[1,1]
   - 61.11849574008584 eta[3,1,1] >= -58.04987184260682
 DBt[0,0]: delt[0,0] + eta[4,0,0] <= 1
 DBt[0,1]: delt[0,1] + eta[4,0,1] <= 1
 DBt[1,0]: delt[1,0] + eta[4,1,0] <= 1
 DBt[1,1]: delt[1,1] + eta[4,1,1] <= 1
 S1t[0]: delt[0,0] + delt[1,0] - zeta[0] >= 0
 S1t[1]: delt[0,1] + delt[1,1] - zeta[1] >= 0
 S2t: delt[0,0] + delt[0,1] + delt[1,0] + delt[1,1] + 3 theta <= 4
 Tite: eta[0,0,0] + eta[0,0,1] + eta[0,1,0] + eta[0,1,1] + eta[1,0,0]
   + eta[1,0,1] + eta[1,1,0] + eta[1,1,1] + eta[2,0,0] + eta[2,0,1]
   + eta[2,1,0] + eta[2,1,1] + eta[3,0,0] + eta[3,0,1] + eta[3,1,0]
   + eta[3,1,1] + zeta[0] + zeta[1] + theta = 8
 Covr[0,0]: eta[2,0,0] + eta[3,0,0] + zeta[0] <= 2
 Covr[0,1]: eta[2,0,1] + eta[3,0,1] + zeta[1] <= 2
 Covr[1,0]: eta[2,1,0] + eta[3,1,0] + zeta[0] <= 2
 Covr[1,1]: eta[2,1,1] + eta[3,1,1] + zeta[1] <= 2
 Covr[0,0]: eta[2,1,0] + eta[3,1,0] <= 1
 Covr[1,0]: eta[2,0,0] + eta[3,0,0] <= 1
 Covr[0,0]: eta[0,0,0] + eta[1,0,0] + eta[2,0,0] + eta[3,0,0] + zeta[0]
   <= 3
 Covr[1,0]: eta[0,1,0] + eta[1,1,0] + eta[2,1,0] + eta[3,1,0] + zeta[0]
   <= 3
 Covr[0,0]: eta[0,0,0] + eta[0,1,0] + eta[2,1,0] + eta[3,1,0] + zeta[0]
   <= 3
 Covr[1,0]: eta[0,0,0] + eta[0,1,0] + eta[2,0,0] + eta[3,0,0] + zeta[0]
   <= 3
 Covr[0,0]: eta[1,0,0] + eta[1,1,0] + eta[2,1,0] + eta[3,1,0] + zeta[0]
   <= 3
 Covr[1,0]: eta[1,0,0] + eta[1,1,0] + eta[2,0,0] + eta[3,0,0] + zeta[0]
   <= 3
 Covr[0,0]: eta[0,0,0] + eta[0,1,0] + eta[1,0,0] + eta[1,1,0] + eta[2,0,0]
   + eta[2,1,0] + eta[3,0,0] + eta[3,1,0] + zeta[0] <= 4
 Covr[1,0]: eta[0,0,0] + eta[0,1,0] + eta[1,0,0] + eta[1,1,0] + eta[2,0,0]
   + eta[2,1,0] + eta[3,0,0] + eta[3,1,0] + zeta[0] <= 4
 Covr[0,0]: eta[0,0,0] + eta[0,1,0] + eta[1,0,0] + eta[1,1,0] + eta[2,0,0]
   + eta[2,1,0] + eta[3,0,0] + eta[3,1,0] + zeta[0] <= 3
 Covr[1,0]: eta[0,0,0] + eta[0,1,0] + eta[1,0,0] + eta[1,1,0] + eta[2,0,0]
   + eta[2,1,0] + eta[3,0,0] + eta[3,1,0] + zeta[0] <= 3
 Covr1[0,0]: eta[0,0,0] + eta[1,0,0] + eta[2,0,0] + eta[3,0,0] <= 3
 Covr1[0,1]: eta[0,0,1] + eta[1,0,1] + eta[2,0,1] + eta[3,0,1] <= 3
 Covr1[1,0]: eta[0,1,0] + eta[1,1,0] + eta[2,1,0] + eta[3,1,0] <= 3
 Covr1[1,1]: eta[0,1,1] + eta[1,1,1] + eta[2,1,1] + eta[3,1,1] <= 3
 Covr1.2.a[0,0]: eta[0,0,0] + eta[1,0,0] + eta[2,0,0] <= 2
 Covr1.2.a[1,0]: eta[0,1,0] + eta[1,1,0] + eta[2,1,0] <= 2
 Covr1.2.b.i[0,0]: eta[0,0,0] + eta[0,1,0] + eta[2,1,0] + eta[4,0,1]
   + eta[4,1,1] + theta <= 5
 Covr1.2.b.i[1,0]: eta[0,0,0] + eta[0,1,0] + eta[2,0,0] + eta[4,0,1]
   + eta[4,1,1] + theta <= 5
 Covr1.2.b.ii[0,0]: eta[0,0,0] + eta[0,0,1] + eta[0,1,0] + eta[1,0,1]
   + eta[2,0,1] + eta[2,1,0] + eta[4,1,1] + theta <= 7
 Covr1.2.b.ii[1,0]: eta[0,0,0] + eta[0,1,0] + eta[0,1,1] + eta[1,1,1]
   + eta[2,0,0] + eta[2,1,1] + eta[4,0,1] + theta <= 7
 Covr1.2.b.iii[0,0]: eta[0,0,0] + eta[0,1,0] + eta[0,1,1] + eta[1,1,1]
   + eta[2,1,0] + eta[2,1,1] + eta[4,0,1] + theta <= 7
 Covr1.2.b.iii[1,0]: eta[0,0,0] + eta[0,0,1] + eta[0,1,0] + eta[1,0,1]
   + eta[2,0,0] + eta[2,0,1] + eta[4,1,1] + theta <= 7
 Covr1.2.c.i[0,0]: eta[1,0,0] + eta[1,1,0] + eta[2,1,0] + eta[4,0,1]
   + eta[4,1,1] + theta <= 5
 Covr1.2.c.i[1,0]: eta[1,0,0] + eta[1,1,0] + eta[2,0,0] + eta[4,0,1]
   + eta[4,1,1] + theta <= 5
 Covr1.2.c.ii[0,0]: eta[0,0,1] + eta[1,0,0] + eta[1,0,1] + eta[1,1,0]
   + eta[2,0,1] + eta[2,1,0] + eta[4,1,1] + theta <= 7
 Covr1.2.c.ii[1,0]: eta[0,1,1] + eta[1,0,0] + eta[1,1,0] + eta[1,1,1]
   + eta[2,0,0] + eta[2,1,1] + eta[4,0,1] + theta <= 7
 Covr1.2.c.iii[0,0]: eta[0,1,1] + eta[1,0,0] + eta[1,1,0] + eta[1,1,1]
   + eta[2,1,0] + eta[2,1,1] + eta[4,0,1] + theta <= 7
 Covr1.2.c.iii[1,0]: eta[0,0,1] + eta[1,0,0] + eta[1,0,1] + eta[1,1,0]
   + eta[2,0,0] + eta[2,0,1] + eta[4,1,1] + theta <= 7
 Covr1.3.a.i[0,0]: eta[0,0,0] + eta[1,1,0] + eta[4,0,1] + eta[4,1,1]
   + theta <= 4
 Covr1.3.a.i[1,0]: eta[0,1,0] + eta[1,0,0] + eta[4,0,1] + eta[4,1,1]
   + theta <= 4
 Covr1.3.a.ii[0,0]: eta[0,0,0] + eta[0,0,1] + eta[1,0,1] + eta[1,1,0]
   + eta[2,0,1] + eta[4,1,1] + theta <= 6
 Covr1.3.a.ii[1,0]: eta[0,1,0] + eta[0,1,1] + eta[1,0,0] + eta[1,1,1]
   + eta[2,1,1] + eta[4,0,1] + theta <= 6
 Covr1.3.a.iii[0,0]: eta[0,0,0] + eta[0,1,1] + eta[1,1,0] + eta[1,1,1]
   + eta[2,1,1] + eta[4,0,1] + theta <= 6
 Covr1.3.a.iii[1,0]: eta[0,0,1] + eta[0,1,0] + eta[1,0,0] + eta[1,0,1]
   + eta[2,0,1] + eta[4,1,1] + theta <= 6
 Covr1.3.b.i[0,0]: eta[0,0,0] + eta[1,0,0] + eta[2,1,0] + eta[4,0,1]
   + eta[4,1,1] + theta <= 4
 Covr1.3.b.i[1,0]: eta[0,1,0] + eta[1,1,0] + eta[2,0,0] + eta[4,0,1]
   + eta[4,1,1] + theta <= 4
 Covr1.3.b.ii[0,0]: eta[0,0,0] + eta[0,0,1] + eta[1,0,0] + eta[1,0,1]
   + eta[2,0,1] + eta[2,1,0] + eta[4,1,1] + theta <= 6
 Covr1.3.b.ii[1,0]: eta[0,1,0] + eta[0,1,1] + eta[1,1,0] + eta[1,1,1]
   + eta[2,0,0] + eta[2,1,1] + eta[4,0,1] + theta <= 6
 Covr1.3.b.iii[0,0]: eta[0,0,0] + eta[0,1,1] + eta[1,0,0] + eta[1,1,1]
   + eta[2,1,0] + eta[2,1,1] + eta[4,0,1] + theta <= 6
 Covr1.3.b.iii[1,0]: eta[0,0,1] + eta[0,1,0] + eta[1,0,1] + eta[1,1,0]
   + eta[2,0,0] + eta[2,0,1] + eta[4,1,1] + theta <= 6
 Covr1.3.c.i[0,0]: eta[2,0,0] + eta[2,1,0] + eta[4,0,1] + eta[4,1,1]
   + theta <= 4
 Covr1.3.c.i[1,0]: eta[2,0,0] + eta[2,1,0] + eta[4,0,1] + eta[4,1,1]
   + theta <= 4
 Covr1.3.c.ii[0,0]: eta[0,0,1] + eta[1,0,1] + eta[2,0,0] + eta[2,0,1]
   + eta[2,1,0] + eta[4,1,1] + theta <= 6
 Covr1.3.c.ii[1,0]: eta[0,1,1] + eta[1,1,1] + eta[2,0,0] + eta[2,1,0]
   + eta[2,1,1] + eta[4,0,1] + theta <= 6
 Covr1.3.c.iii[0,0]: eta[0,1,1] + eta[1,1,1] + eta[2,0,0] + eta[2,1,0]
   + eta[2,1,1] + eta[4,0,1] + theta <= 6
 Covr1.3.c.iii[1,0]: eta[0,0,1] + eta[1,0,1] + eta[2,0,0] + eta[2,0,1]
   + eta[2,1,0] + eta[4,1,1] + theta <= 6
 Covr1.3.d[0]: eta[0,0,0] + eta[0,1,0] + eta[1,0,0] + eta[1,1,0]
   + eta[2,0,0] + eta[2,1,0] <= 3
 Obj1[0,0]: - 2 delt[0,0] + phi[0,0] <= 0
 Obj1[0,1]: - 2 delt[0,1] + phi[0,1] <= 0
 Obj1[1,0]: - 2 delt[1,0] + phi[1,0] <= 0
 Obj1[1,1]: - 2 delt[1,1] + phi[1,1] <= 0
 Obj2[0,0]: 2 delt[0,0] + phi[0,0] <= 2
 Obj2[0,1]: 2 delt[0,1] + phi[0,1] <= 2
 Obj2[1,0]: 2 delt[1,0] + phi[1,0] <= 2
 Obj2[1,1]: 2 delt[1,1] + phi[1,1] <= 2
Bounds
Binaries
 eta[0,0,0] eta[0,0,1] eta[0,1,0] eta[0,1,1] eta[1,0,0] eta[1,0,1]
 eta[1,1,0] eta[1,1,1] eta[2,0,0] eta[2,0,1] eta[2,1,0] eta[2,1,1]
 eta[3,0,0] eta[3,0,1] eta[3,1,0] eta[3,1,1] eta[4,0,0] eta[4,0,1]
 eta[4,1,0] eta[4,1,1] zeta[0] zeta[1] theta
End
