\ Model D-SBM-((0, 0), (0, 1))
\ LP format - for model browsing. Use MPS format to capture full model detail.
\ Signature: 0x8f594043c470bae8
Maximize
  phi[0] + phi[1] + phi[2]
Subject To
 LB[0,0]: c[1,0] + 0.4125628472163845 delt[0] + 0.4125628472163845 delt[1]
   - 0.4125628472163845 DELTA >= 6.367849616696749
 LB[0,1]: c[1,1] - 1.752299151602763 delt[0] + 1.752299151602763 DELTA
   >= 3.679344868040751
 LB[1,0]: c[0,0] - 1.588321484272365 DELTA >= 4.366965285208
 LB[1,1]: c[0,1] - 2.922794030974244 delt[1] + 2.922794030974244 DELTA
   >= 2.040258429724376
 UB[0,0]: c[0,0] - 1.542711100642348 delt[0] - 1.542711100642348 delt[1]
   + 1.542711100642348 DELTA <= 5.412575726530324
 UB[0,1]: c[0,1] + 1.922794030974244 delt[0] - 1.922794030974244 DELTA
   <= 4.96305246069862
 UB[1,0]: c[1,0] + 0.458173230846401 DELTA <= 7.413460058019074
 UB[1,1]: c[1,1] + 2.752299151602763 delt[1] - 2.752299151602763 DELTA
   <= 6.431644019643514
 PM[0,0]: - c[0,0] + c[1,0] + 3.000884389181057 delt[0]
   + 3.000884389181057 delt[1] - 3.000884389181057 DELTA
   >= 2.000884331488749
 PM[0,1]: - c[0,1] + c[1,1] - 4.675093182577006 delt[0]
   + 4.675093182577006 DELTA >= -1.283707592657868
 PM[1,0]: c[0,0] - c[1,0] - 3.046494772811074 DELTA >= -3.046494772811074
 PM[1,1]: c[0,1] - c[1,1] - 5.675093182577006 delt[1]
   + 5.675093182577006 DELTA >= -4.391385589919137
 DL[0]: delt[0] >= 0
 DL[1]: delt[1] >= 0
 DU[0]: delt[0] <= 1
 DU[1]: delt[1] <= 1
 MC[0]: delt[0] - DELTA >= 0
 MC[1]: delt[1] - DELTA >= 0
 MC[2]: delt[0] + delt[1] - DELTA <= 1
 MC[3]: DELTA >= 0
 LBt[0,0]: c[1,0] + 0.4125628472163845 delt[0] + 0.4125628472163845 delt[1]
   - 0.4125628472163845 DELTA + 148.2692011603815 eta[0,0,0]
   <= 154.6370507770782
 LBt[0,1]: c[1,1] - 1.752299151602763 delt[0] + 1.752299151602763 DELTA
   + 148.2692011603815 eta[0,0,1] <= 151.9485460284222
 LBt[1,0]: c[0,0] - 1.588321484272365 DELTA + 148.2692011603815 eta[0,1,0]
   <= 152.6361664455895
 LBt[1,1]: c[0,1] - 2.922794030974244 delt[1] + 2.922794030974244 DELTA
   + 148.2692011603815 eta[0,1,1] <= 150.3094595901059
 UBt[0,0]: c[0,0] - 1.542711100642348 delt[0] - 1.542711100642348 delt[1]
   + 1.542711100642348 DELTA - 148.2692011603815 eta[1,0,0]
   >= -142.8566254338511
 UBt[0,1]: c[0,1] + 1.922794030974244 delt[0] - 1.922794030974244 DELTA
   - 148.2692011603815 eta[1,0,1] >= -143.3061486996829
 UBt[1,0]: c[1,0] + 0.458173230846401 DELTA - 148.2692011603815 eta[1,1,0]
   >= -140.8557411023624
 UBt[1,1]: c[1,1] + 2.752299151602763 delt[1] - 2.752299151602763 DELTA
   - 148.2692011603815 eta[1,1,1] >= -141.8375571407379
 PMt[0,0]: - c[0,0] + c[1,0] + 3.000884389181057 delt[0]
   + 3.000884389181057 delt[1] - 3.000884389181057 DELTA
   + 148.2692011603815 eta[2,0,0] <= 150.2700854918702
 PMt[0,1]: - c[0,1] + c[1,1] - 4.675093182577006 delt[0]
   + 4.675093182577006 DELTA + 148.2692011603815 eta[2,0,1]
   <= 146.9854935677236
 PMt[1,0]: c[0,0] - c[1,0] - 3.046494772811074 DELTA
   + 148.2692011603815 eta[2,1,0] <= 145.2227063875704
 PMt[1,1]: c[0,1] - c[1,1] - 5.675093182577006 delt[1]
   + 5.675093182577006 DELTA + 148.2692011603815 eta[2,1,1]
   <= 143.8778155704623
 DLt[0]: delt[0] + eta[3,0,0] <= 1
 DLt[1]: delt[1] + eta[3,0,1] <= 1
 DUt[0]: delt[0] - eta[3,1,0] >= 0
 DUt[1]: delt[1] - eta[3,1,1] >= 0
 MCt[0]: delt[0] - DELTA + zeta[0] <= 1
 MCt[1]: delt[1] - DELTA + zeta[1] <= 1
 MCt[2]: delt[0] + delt[1] - DELTA - zeta[2] >= 0
 MCt[3]: DELTA + zeta[3] <= 1
 Tite: eta[0,0,0] + eta[0,0,1] + eta[0,1,0] + eta[0,1,1] + eta[1,0,0]
   + eta[1,0,1] + eta[1,1,0] + eta[1,1,1] + eta[2,0,0] + eta[2,0,1]
   + eta[2,1,0] + eta[2,1,1] + eta[3,0,0] + eta[3,0,1] + eta[3,1,0]
   + eta[3,1,1] + zeta[0] + zeta[1] + zeta[2] + zeta[3] = 7
 Covr1.A[0,0]: eta[0,0,0] + eta[1,0,0] + eta[2,0,0] + zeta[2] <= 3
 Covr1.A[0,1]: eta[0,0,1] + eta[1,0,1] + eta[2,0,1] + zeta[0] <= 3
 Covr1.A[1,0]: eta[0,1,0] + eta[1,1,0] + eta[2,1,0] + zeta[3] <= 3
 Covr1.A[1,1]: eta[0,1,1] + eta[1,1,1] + eta[2,1,1] + zeta[1] <= 3
 Covr1.B[0,0]: eta[3,0,0] + zeta[0] + zeta[3] <= 2
 Covr1.B[0,1]: eta[3,0,1] + zeta[1] + zeta[3] <= 2
 Covr1.B[1,0]: eta[3,1,0] + zeta[1] + zeta[2] <= 2
 Covr1.B[1,1]: eta[3,1,1] + zeta[0] + zeta[2] <= 2
 Covr1.C.i[0,0]: eta[0,1,0] + eta[1,1,0] + eta[2,1,0] + eta[3,0,0]
   + zeta[0] + zeta[3] <= 4
 Covr1.C.i[0,1]: eta[0,1,0] + eta[1,1,0] + eta[2,1,0] + eta[3,0,1]
   + zeta[1] + zeta[3] <= 4
 Covr1.C.i[1,0]: eta[0,0,0] + eta[1,0,0] + eta[2,0,0] + eta[3,1,0]
   + zeta[1] + zeta[2] <= 4
 Covr1.C.i[1,1]: eta[0,0,0] + eta[1,0,0] + eta[2,0,0] + eta[3,1,1]
   + zeta[0] + zeta[2] <= 4
 Covr1.C.ii[0,0]: eta[0,0,1] + eta[1,0,1] + eta[2,0,1] + eta[3,0,0]
   + zeta[0] + zeta[3] <= 4
 Covr1.C.ii[0,1]: eta[0,1,1] + eta[1,1,1] + eta[2,1,1] + eta[3,0,1]
   + zeta[1] + zeta[3] <= 4
 Covr1.C.ii[1,0]: eta[0,1,1] + eta[1,1,1] + eta[2,1,1] + eta[3,1,0]
   + zeta[1] + zeta[2] <= 4
 Covr1.C.ii[1,1]: eta[0,0,1] + eta[1,0,1] + eta[2,0,1] + eta[3,1,1]
   + zeta[0] + zeta[2] <= 4
 Covr1.C.iii[0,0]: eta[0,0,1] + eta[0,1,0] + eta[1,0,1] + eta[1,1,0]
   + eta[2,0,1] + eta[2,1,0] + eta[3,0,0] + zeta[0] + zeta[3] <= 6
 Covr1.C.iii[0,1]: eta[0,1,0] + eta[0,1,1] + eta[1,1,0] + eta[1,1,1]
   + eta[2,1,0] + eta[2,1,1] + eta[3,0,1] + zeta[1] + zeta[3] <= 6
 Covr1.C.iii[1,0]: eta[0,0,0] + eta[0,1,1] + eta[1,0,0] + eta[1,1,1]
   + eta[2,0,0] + eta[2,1,1] + eta[3,1,0] + zeta[1] + zeta[2] <= 6
 Covr1.C.iii[1,1]: eta[0,0,0] + eta[0,0,1] + eta[1,0,0] + eta[1,0,1]
   + eta[2,0,0] + eta[2,0,1] + eta[3,1,1] + zeta[0] + zeta[2] <= 6
 Covr2.A[1,1]: eta[0,1,1] + eta[1,1,1] + eta[2,1,1] <= 2
 Covr2.B[1,1,0]: eta[0,0,1] + eta[0,1,1] + eta[2,0,1] + zeta[2] + zeta[3]
   <= 4
 Covr2.B[1,1,1]: eta[1,0,1] + eta[1,1,1] + eta[2,0,1] + zeta[2] + zeta[3]
   <= 4
 Covr2.C[1,1,0,0]: eta[0,0,0] + eta[0,0,1] + eta[0,1,1] + eta[1,0,0]
   + eta[2,0,0] + eta[2,0,1] + zeta[2] + zeta[3] <= 6
 Covr2.C[1,1,0,1]: eta[0,0,1] + eta[0,1,0] + eta[0,1,1] + eta[1,1,0]
   + eta[2,0,1] + eta[2,1,0] + zeta[2] + zeta[3] <= 6
 Covr2.C[1,1,1,0]: eta[0,0,0] + eta[1,0,0] + eta[1,0,1] + eta[1,1,1]
   + eta[2,0,0] + eta[2,0,1] + zeta[2] + zeta[3] <= 6
 Covr2.C[1,1,1,1]: eta[0,1,0] + eta[1,0,1] + eta[1,1,0] + eta[1,1,1]
   + eta[2,0,1] + eta[2,1,0] + zeta[2] + zeta[3] <= 6
 Obj1[0]: - 2 delt[0] + phi[0] <= 0
 Obj1[1]: - 2 delt[1] + phi[1] <= 0
 Obj2[0]: 2 delt[0] + phi[0] <= 2
 Obj2[1]: 2 delt[1] + phi[1] <= 2
 Obj3: - 2 DELTA + phi[2] <= 0
 Obj4: 2 DELTA + phi[2] <= 2
Bounds
Binaries
 eta[0,0,0] eta[0,0,1] eta[0,1,0] eta[0,1,1] eta[1,0,0] eta[1,0,1]
 eta[1,1,0] eta[1,1,1] eta[2,0,0] eta[2,0,1] eta[2,1,0] eta[2,1,1]
 eta[3,0,0] eta[3,0,1] eta[3,1,0] eta[3,1,1] zeta[0] zeta[1] zeta[2]
 zeta[3]
End
