\ Model D-SBM-((0, 0), (1, 0))
\ LP format - for model browsing. Use MPS format to capture full model detail.
\ Signature: 0x8f594043c4712c6f
Maximize
  phi[0] + phi[1] + phi[2]
Subject To
 LB[0,0]: c[1,0] + 8.147363360160787 delt[0] + 8.147363360160787 delt[1]
   - 8.147363360160787 DELTA >= 8.147363360160787
 LB[0,1]: c[1,1] - 1.70398926479822 delt[0] + 1.70398926479822 DELTA
   >= 5.891877966693049
 LB[1,0]: c[0,0] + 1.261654071173843 DELTA >= 1.261654071173843
 LB[1,1]: c[0,1] - 0.5150911252102723 delt[1] + 0.5150911252102723 DELTA
   >= 6.998427069569876
 UB[0,0]: c[0,0] + 1.27357e-08 delt[0] + 1.27357e-08 delt[1]
   - 1.27357e-08 DELTA <= 2.26165408390955
 UB[0,1]: c[0,1] + 2.571093120387288 delt[0] - 2.571093120387288 DELTA
   <= 9.569520189807333
 UB[1,0]: c[1,0] + 6.885709301722649 DELTA <= 9.147363372896493
 UB[1,1]: c[1,1] - 0.3520127303787959 delt[1] + 0.3520127303787959 DELTA
   <= 7.595867231341438
 PM[0,0]: - c[0,0] + c[1,0] + 9.147363360160787 delt[0]
   + 9.147363360160787 delt[1] - 9.147363360160787 DELTA
   >= 6.885709288986943
 PM[0,1]: - c[0,1] + c[1,1] - 4.275082385035677 delt[0]
   + 4.275082385035677 DELTA >= -3.677642223114284
 PM[1,0]: c[0,0] - c[1,0] - 7.88570930172265 DELTA >= -7.88570930172265
 PM[1,1]: c[0,1] - c[1,1] - 2.219080389858661 delt[1]
   + 2.219080389858661 DELTA >= -0.597440161771561
 DL[0]: delt[0] >= 0
 DL[1]: delt[1] >= 0
 DU[0]: delt[0] <= 1
 DU[1]: delt[1] <= 1
 MC[0]: delt[0] - DELTA >= 0
 MC[1]: delt[1] - DELTA >= 0
 MC[2]: delt[0] + delt[1] - DELTA <= 1
 MC[3]: DELTA >= 0
 LBt[0,0]: c[1,0] + 8.147363360160787 delt[0] + 8.147363360160787 delt[1]
   - 8.147363360160787 DELTA + 191.3904037961467 eta[0,0,0]
   <= 199.5377671563075
 LBt[0,1]: c[1,1] - 1.70398926479822 delt[0] + 1.70398926479822 DELTA
   + 191.3904037961467 eta[0,0,1] <= 197.2822817628397
 LBt[1,0]: c[0,0] + 1.261654071173843 DELTA + 191.3904037961467 eta[0,1,0]
   <= 192.6520578673205
 LBt[1,1]: c[0,1] - 0.5150911252102723 delt[1] + 0.5150911252102723 DELTA
   + 191.3904037961467 eta[0,1,1] <= 198.3888308657166
 UBt[0,0]: c[0,0] + 1.27357e-08 delt[0] + 1.27357e-08 delt[1]
   - 1.27357e-08 DELTA - 191.3904037961467 eta[1,0,0]
   >= -189.1287497122371
 UBt[0,1]: c[0,1] + 2.571093120387288 delt[0] - 2.571093120387288 DELTA
   - 191.3904037961467 eta[1,0,1] >= -181.8208836063394
 UBt[1,0]: c[1,0] + 6.885709301722649 DELTA - 191.3904037961467 eta[1,1,0]
   >= -182.2430404232502
 UBt[1,1]: c[1,1] - 0.3520127303787959 delt[1] + 0.3520127303787959 DELTA
   - 191.3904037961467 eta[1,1,1] >= -183.7945365648052
 PMt[0,0]: - c[0,0] + c[1,0] + 9.147363360160787 delt[0]
   + 9.147363360160787 delt[1] - 9.147363360160787 DELTA
   + 191.3904037961467 eta[2,0,0] <= 198.2761130851336
 PMt[0,1]: - c[0,1] + c[1,1] - 4.275082385035677 delt[0]
   + 4.275082385035677 DELTA + 191.3904037961467 eta[2,0,1]
   <= 187.7127615730324
 PMt[1,0]: c[0,0] - c[1,0] - 7.88570930172265 DELTA
   + 191.3904037961467 eta[2,1,0] <= 183.504694494424
 PMt[1,1]: c[0,1] - c[1,1] - 2.219080389858661 delt[1]
   + 2.219080389858661 DELTA + 191.3904037961467 eta[2,1,1]
   <= 190.7929636343751
 DLt[0]: delt[0] + eta[3,0,0] <= 1
 DLt[1]: delt[1] + eta[3,0,1] <= 1
 DUt[0]: delt[0] - eta[3,1,0] >= 0
 DUt[1]: delt[1] - eta[3,1,1] >= 0
 MCt[0]: delt[0] - DELTA + zeta[0] <= 1
 MCt[1]: delt[1] - DELTA + zeta[1] <= 1
 MCt[2]: delt[0] + delt[1] - DELTA - zeta[2] >= 0
 MCt[3]: DELTA + zeta[3] <= 1
 Tite: eta[0,0,0] + eta[0,0,1] + eta[0,1,0] + eta[0,1,1] + eta[1,0,0]
   + eta[1,0,1] + eta[1,1,0] + eta[1,1,1] + eta[2,0,0] + eta[2,0,1]
   + eta[2,1,0] + eta[2,1,1] + eta[3,0,0] + eta[3,0,1] + eta[3,1,0]
   + eta[3,1,1] + zeta[0] + zeta[1] + zeta[2] + zeta[3] = 7
 Covr1.A[0,0]: eta[0,0,0] + eta[1,0,0] + eta[2,0,0] + zeta[2] <= 3
 Covr1.A[0,1]: eta[0,0,1] + eta[1,0,1] + eta[2,0,1] + zeta[0] <= 3
 Covr1.A[1,0]: eta[0,1,0] + eta[1,1,0] + eta[2,1,0] + zeta[3] <= 3
 Covr1.A[1,1]: eta[0,1,1] + eta[1,1,1] + eta[2,1,1] + zeta[1] <= 3
 Covr1.B[0,0]: eta[3,0,0] + zeta[0] + zeta[3] <= 2
 Covr1.B[0,1]: eta[3,0,1] + zeta[1] + zeta[3] <= 2
 Covr1.B[1,0]: eta[3,1,0] + zeta[1] + zeta[2] <= 2
 Covr1.B[1,1]: eta[3,1,1] + zeta[0] + zeta[2] <= 2
 Covr1.C.i[0,0]: eta[0,1,0] + eta[1,1,0] + eta[2,1,0] + eta[3,0,0]
   + zeta[0] + zeta[3] <= 4
 Covr1.C.i[0,1]: eta[0,1,0] + eta[1,1,0] + eta[2,1,0] + eta[3,0,1]
   + zeta[1] + zeta[3] <= 4
 Covr1.C.i[1,0]: eta[0,0,0] + eta[1,0,0] + eta[2,0,0] + eta[3,1,0]
   + zeta[1] + zeta[2] <= 4
 Covr1.C.i[1,1]: eta[0,0,0] + eta[1,0,0] + eta[2,0,0] + eta[3,1,1]
   + zeta[0] + zeta[2] <= 4
 Covr1.C.ii[0,0]: eta[0,0,1] + eta[1,0,1] + eta[2,0,1] + eta[3,0,0]
   + zeta[0] + zeta[3] <= 4
 Covr1.C.ii[0,1]: eta[0,1,1] + eta[1,1,1] + eta[2,1,1] + eta[3,0,1]
   + zeta[1] + zeta[3] <= 4
 Covr1.C.ii[1,0]: eta[0,1,1] + eta[1,1,1] + eta[2,1,1] + eta[3,1,0]
   + zeta[1] + zeta[2] <= 4
 Covr1.C.ii[1,1]: eta[0,0,1] + eta[1,0,1] + eta[2,0,1] + eta[3,1,1]
   + zeta[0] + zeta[2] <= 4
 Covr1.C.iii[0,0]: eta[0,0,1] + eta[0,1,0] + eta[1,0,1] + eta[1,1,0]
   + eta[2,0,1] + eta[2,1,0] + eta[3,0,0] + zeta[0] + zeta[3] <= 6
 Covr1.C.iii[0,1]: eta[0,1,0] + eta[0,1,1] + eta[1,1,0] + eta[1,1,1]
   + eta[2,1,0] + eta[2,1,1] + eta[3,0,1] + zeta[1] + zeta[3] <= 6
 Covr1.C.iii[1,0]: eta[0,0,0] + eta[0,1,1] + eta[1,0,0] + eta[1,1,1]
   + eta[2,0,0] + eta[2,1,1] + eta[3,1,0] + zeta[1] + zeta[2] <= 6
 Covr1.C.iii[1,1]: eta[0,0,0] + eta[0,0,1] + eta[1,0,0] + eta[1,0,1]
   + eta[2,0,0] + eta[2,0,1] + eta[3,1,1] + zeta[0] + zeta[2] <= 6
 Covr2.A[0,1]: eta[0,0,1] + eta[1,0,1] + eta[2,0,1] <= 2
 Covr2.B[0,1,0]: eta[0,0,1] + eta[0,1,1] + eta[2,1,1] + zeta[2] + zeta[3]
   <= 4
 Covr2.B[0,1,1]: eta[1,0,1] + eta[1,1,1] + eta[2,1,1] + zeta[2] + zeta[3]
   <= 4
 Covr2.C[0,1,0,0]: eta[0,0,0] + eta[0,0,1] + eta[0,1,1] + eta[1,0,0]
   + eta[2,0,0] + eta[2,1,1] + zeta[2] + zeta[3] <= 6
 Covr2.C[0,1,0,1]: eta[0,0,1] + eta[0,1,0] + eta[0,1,1] + eta[1,1,0]
   + eta[2,1,0] + eta[2,1,1] + zeta[2] + zeta[3] <= 6
 Covr2.C[0,1,1,0]: eta[0,0,0] + eta[1,0,0] + eta[1,0,1] + eta[1,1,1]
   + eta[2,0,0] + eta[2,1,1] + zeta[2] + zeta[3] <= 6
 Covr2.C[0,1,1,1]: eta[0,1,0] + eta[1,0,1] + eta[1,1,0] + eta[1,1,1]
   + eta[2,1,0] + eta[2,1,1] + zeta[2] + zeta[3] <= 6
 Obj1[0]: - 2 delt[0] + phi[0] <= 0
 Obj1[1]: - 2 delt[1] + phi[1] <= 0
 Obj2[0]: 2 delt[0] + phi[0] <= 2
 Obj2[1]: 2 delt[1] + phi[1] <= 2
 Obj3: - 2 DELTA + phi[2] <= 0
 Obj4: 2 DELTA + phi[2] <= 2
Bounds
Binaries
 eta[0,0,0] eta[0,0,1] eta[0,1,0] eta[0,1,1] eta[1,0,0] eta[1,0,1]
 eta[1,1,0] eta[1,1,1] eta[2,0,0] eta[2,0,1] eta[2,1,0] eta[2,1,1]
 eta[3,0,0] eta[3,0,1] eta[3,1,0] eta[3,1,1] zeta[0] zeta[1] zeta[2]
 zeta[3]
End
