\ Model D-SBM-((1, 0), (0, 1))
\ LP format - for model browsing. Use MPS format to capture full model detail.
\ Signature: 0x695245b68714df8b
Maximize
  phi[0] + phi[1] + phi[2]
Subject To
 LB[0,0]: c[1,0] + 4.823619575864633 delt[0] + 4.823619575864633 delt[1]
   - 4.823619575864633 DELTA >= 10
 LB[0,1]: c[1,1] >= 9
 LB[1,0]: c[0,0] - 0.4062889259149998 DELTA >= 4.770091498220367
 LB[1,1]: c[0,1] - 10 delt[1] + 10 DELTA >= 0
 UB[0,0]: c[0,0] - 5.229908501779633 delt[0] - 5.229908501779633 delt[1]
   + 5.229908501779633 DELTA <= 4.770091498220367
 UB[0,1]: c[0,1] + 9 delt[0] - 9 DELTA <= 10
 UB[1,0]: c[1,0] <= 10
 UB[1,1]: c[1,1] + delt[1] - DELTA <= 10
 PM[0,0]: - c[0,0] + c[1,0] + 10.05352807764427 delt[0]
   + 10.05352807764427 delt[1] - 10.05352807764427 DELTA
   >= 5.229908501779633
 PM[0,1]: - c[0,1] + c[1,1] - 10 delt[0] + 10 DELTA >= -1
 PM[1,0]: c[0,0] - c[1,0] - 5.229908501779633 DELTA >= -5.229908501779633
 PM[1,1]: c[0,1] - c[1,1] - 11 delt[1] + 11 DELTA >= -10
 DL[0]: delt[0] >= 0
 DL[1]: delt[1] >= 0
 DU[0]: delt[0] <= 1
 DU[1]: delt[1] <= 1
 MC[0]: delt[0] - DELTA >= 0
 MC[1]: delt[1] - DELTA >= 0
 MC[2]: delt[0] + delt[1] - DELTA <= 1
 MC[3]: DELTA >= 0
 LBt[0,0]: c[1,0] + 4.823619575864633 delt[0] + 4.823619575864633 delt[1]
   - 4.823619575864633 DELTA + 200 eta[0,0,0] <= 210
 LBt[0,1]: c[1,1] + 200 eta[0,0,1] <= 209
 LBt[1,0]: c[0,0] - 0.4062889259149998 DELTA + 200 eta[0,1,0]
   <= 204.7700914982204
 LBt[1,1]: c[0,1] - 10 delt[1] + 10 DELTA + 200 eta[0,1,1] <= 200
 UBt[0,0]: c[0,0] - 5.229908501779633 delt[0] - 5.229908501779633 delt[1]
   + 5.229908501779633 DELTA - 200 eta[1,0,0] >= -195.2299085017796
 UBt[0,1]: c[0,1] + 9 delt[0] - 9 DELTA - 200 eta[1,0,1] >= -190
 UBt[1,0]: c[1,0] - 200 eta[1,1,0] >= -190
 UBt[1,1]: c[1,1] + delt[1] - DELTA - 200 eta[1,1,1] >= -190
 PMt[0,0]: - c[0,0] + c[1,0] + 10.05352807764427 delt[0]
   + 10.05352807764427 delt[1] - 10.05352807764427 DELTA + 200 eta[2,0,0]
   <= 205.2299085017796
 PMt[0,1]: - c[0,1] + c[1,1] - 10 delt[0] + 10 DELTA + 200 eta[2,0,1]
   <= 199
 PMt[1,0]: c[0,0] - c[1,0] - 5.229908501779633 DELTA + 200 eta[2,1,0]
   <= 194.7700914982204
 PMt[1,1]: c[0,1] - c[1,1] - 11 delt[1] + 11 DELTA + 200 eta[2,1,1] <= 190
 DLt[0]: delt[0] + eta[3,0,0] <= 1
 DLt[1]: delt[1] + eta[3,0,1] <= 1
 DUt[0]: delt[0] - eta[3,1,0] >= 0
 DUt[1]: delt[1] - eta[3,1,1] >= 0
 MCt[0]: delt[0] - DELTA + zeta[0] <= 1
 MCt[1]: delt[1] - DELTA + zeta[1] <= 1
 MCt[2]: delt[0] + delt[1] - DELTA - zeta[2] >= 0
 MCt[3]: DELTA + zeta[3] <= 1
 Tite: eta[0,0,0] + eta[0,0,1] + eta[0,1,0] + eta[0,1,1] + eta[1,0,0]
   + eta[1,0,1] + eta[1,1,0] + eta[1,1,1] + eta[2,0,0] + eta[2,0,1]
   + eta[2,1,0] + eta[2,1,1] + eta[3,0,0] + eta[3,0,1] + eta[3,1,0]
   + eta[3,1,1] + zeta[0] + zeta[1] + zeta[2] + zeta[3] = 7
 Covr1.A[0,0]: eta[0,0,0] + eta[1,0,0] + eta[2,0,0] + zeta[2] <= 3
 Covr1.A[0,1]: eta[0,0,1] + eta[1,0,1] + eta[2,0,1] + zeta[0] <= 3
 Covr1.A[1,0]: eta[0,1,0] + eta[1,1,0] + eta[2,1,0] + zeta[3] <= 3
 Covr1.A[1,1]: eta[0,1,1] + eta[1,1,1] + eta[2,1,1] + zeta[1] <= 3
 Covr1.B[0,0]: eta[3,0,0] + zeta[0] + zeta[3] <= 2
 Covr1.B[0,1]: eta[3,0,1] + zeta[1] + zeta[3] <= 2
 Covr1.B[1,0]: eta[3,1,0] + zeta[1] + zeta[2] <= 2
 Covr1.B[1,1]: eta[3,1,1] + zeta[0] + zeta[2] <= 2
 Covr1.C.i[0,0]: eta[0,1,0] + eta[1,1,0] + eta[2,1,0] + eta[3,0,0]
   + zeta[0] + zeta[3] <= 4
 Covr1.C.i[0,1]: eta[0,1,0] + eta[1,1,0] + eta[2,1,0] + eta[3,0,1]
   + zeta[1] + zeta[3] <= 4
 Covr1.C.i[1,0]: eta[0,0,0] + eta[1,0,0] + eta[2,0,0] + eta[3,1,0]
   + zeta[1] + zeta[2] <= 4
 Covr1.C.i[1,1]: eta[0,0,0] + eta[1,0,0] + eta[2,0,0] + eta[3,1,1]
   + zeta[0] + zeta[2] <= 4
 Covr1.C.ii[0,0]: eta[0,0,1] + eta[1,0,1] + eta[2,0,1] + eta[3,0,0]
   + zeta[0] + zeta[3] <= 4
 Covr1.C.ii[0,1]: eta[0,1,1] + eta[1,1,1] + eta[2,1,1] + eta[3,0,1]
   + zeta[1] + zeta[3] <= 4
 Covr1.C.ii[1,0]: eta[0,1,1] + eta[1,1,1] + eta[2,1,1] + eta[3,1,0]
   + zeta[1] + zeta[2] <= 4
 Covr1.C.ii[1,1]: eta[0,0,1] + eta[1,0,1] + eta[2,0,1] + eta[3,1,1]
   + zeta[0] + zeta[2] <= 4
 Covr1.C.iii[0,0]: eta[0,0,1] + eta[0,1,0] + eta[1,0,1] + eta[1,1,0]
   + eta[2,0,1] + eta[2,1,0] + eta[3,0,0] + zeta[0] + zeta[3] <= 6
 Covr1.C.iii[0,1]: eta[0,1,0] + eta[0,1,1] + eta[1,1,0] + eta[1,1,1]
   + eta[2,1,0] + eta[2,1,1] + eta[3,0,1] + zeta[1] + zeta[3] <= 6
 Covr1.C.iii[1,0]: eta[0,0,0] + eta[0,1,1] + eta[1,0,0] + eta[1,1,1]
   + eta[2,0,0] + eta[2,1,1] + eta[3,1,0] + zeta[1] + zeta[2] <= 6
 Covr1.C.iii[1,1]: eta[0,0,0] + eta[0,0,1] + eta[1,0,0] + eta[1,0,1]
   + eta[2,0,0] + eta[2,0,1] + eta[3,1,1] + zeta[0] + zeta[2] <= 6
 Covr2.A[0,0]: eta[0,0,0] + eta[1,0,0] + eta[2,0,0] <= 2
 Covr2.A[1,1]: eta[0,1,1] + eta[1,1,1] + eta[2,1,1] <= 2
 Covr2.B[0,0,0]: eta[0,0,0] + eta[0,1,0] + eta[2,1,0] + zeta[0] + zeta[1]
   <= 4
 Covr2.B[0,0,1]: eta[1,0,0] + eta[1,1,0] + eta[2,1,0] + zeta[0] + zeta[1]
   <= 4
 Covr2.B[1,1,0]: eta[0,0,1] + eta[0,1,1] + eta[2,0,1] + zeta[2] + zeta[3]
   <= 4
 Covr2.B[1,1,1]: eta[1,0,1] + eta[1,1,1] + eta[2,0,1] + zeta[2] + zeta[3]
   <= 4
 Covr2.C[0,0,0,0]: eta[0,0,0] + eta[0,0,1] + eta[0,1,0] + eta[1,0,1]
   + eta[2,0,1] + eta[2,1,0] + zeta[0] + zeta[1] <= 6
 Covr2.C[0,0,0,1]: eta[0,0,0] + eta[0,1,0] + eta[0,1,1] + eta[1,1,1]
   + eta[2,1,0] + eta[2,1,1] + zeta[0] + zeta[1] <= 6
 Covr2.C[0,0,1,0]: eta[0,0,1] + eta[1,0,0] + eta[1,0,1] + eta[1,1,0]
   + eta[2,0,1] + eta[2,1,0] + zeta[0] + zeta[1] <= 6
 Covr2.C[0,0,1,1]: eta[0,1,1] + eta[1,0,0] + eta[1,1,0] + eta[1,1,1]
   + eta[2,1,0] + eta[2,1,1] + zeta[0] + zeta[1] <= 6
 Covr2.C[1,1,0,0]: eta[0,0,0] + eta[0,0,1] + eta[0,1,1] + eta[1,0,0]
   + eta[2,0,0] + eta[2,0,1] + zeta[2] + zeta[3] <= 6
 Covr2.C[1,1,0,1]: eta[0,0,1] + eta[0,1,0] + eta[0,1,1] + eta[1,1,0]
   + eta[2,0,1] + eta[2,1,0] + zeta[2] + zeta[3] <= 6
 Covr2.C[1,1,1,0]: eta[0,0,0] + eta[1,0,0] + eta[1,0,1] + eta[1,1,1]
   + eta[2,0,0] + eta[2,0,1] + zeta[2] + zeta[3] <= 6
 Covr2.C[1,1,1,1]: eta[0,1,0] + eta[1,0,1] + eta[1,1,0] + eta[1,1,1]
   + eta[2,0,1] + eta[2,1,0] + zeta[2] + zeta[3] <= 6
 Obj1[0]: - 2 delt[0] + phi[0] <= 0
 Obj1[1]: - 2 delt[1] + phi[1] <= 0
 Obj2[0]: 2 delt[0] + phi[0] <= 2
 Obj2[1]: 2 delt[1] + phi[1] <= 2
 Obj3: - 2 DELTA + phi[2] <= 0
 Obj4: 2 DELTA + phi[2] <= 2
Bounds
Binaries
 eta[0,0,0] eta[0,0,1] eta[0,1,0] eta[0,1,1] eta[1,0,0] eta[1,0,1]
 eta[1,1,0] eta[1,1,1] eta[2,0,0] eta[2,0,1] eta[2,1,0] eta[2,1,1]
 eta[3,0,0] eta[3,0,1] eta[3,1,0] eta[3,1,1] zeta[0] zeta[1] zeta[2]
 zeta[3]
End
