\ Model D-SBM-((1, 0), (0, 0))
\ LP format - for model browsing. Use MPS format to capture full model detail.
\ Signature: 0x8f594043c470bae8
Maximize
  phi[0] + phi[1] + phi[2]
Subject To
 LB[0,0]: c[1,0] + 1.490828496756954 delt[0] + 1.490828496756954 delt[1]
   - 1.490828496756954 DELTA >= 5.592766404878583
 LB[0,1]: c[1,1] - 4.833644408347414 delt[0] + 4.833644408347414 DELTA
   >= 1.927522269366666
 LB[1,0]: c[0,0] - 1.06243062968131 DELTA >= 3.590689615706149
 LB[1,1]: c[0,1] - 0.0810110772958728 delt[1] + 0.0810110772958728 DELTA
   >= 1.846511192070793
 UB[0,0]: c[0,0] - 2.06243062968131 delt[0] - 2.06243062968131 delt[1]
   + 2.06243062968131 DELTA <= 3.590689615706149
 UB[0,1]: c[0,1] + 0.0810123493689296 delt[0] - 0.0810123493689296 DELTA
   <= 2.927523541439722
 UB[1,0]: c[1,0] + 0.4908284967569543 DELTA <= 5.592766404878583
 UB[1,1]: c[1,1] + 4.833643136274357 delt[1] - 4.833643136274357 DELTA
   <= 7.76116667771408
 PM[0,0]: - c[0,0] + c[1,0] + 3.553259126438264 delt[0]
   + 3.553259126438264 delt[1] - 3.553259126438264 DELTA
   >= 2.002076789172434
 PM[0,1]: - c[0,1] + c[1,1] - 5.914656757716344 delt[0]
   + 5.914656757716344 DELTA >= -1.000001272073057
 PM[1,0]: c[0,0] - c[1,0] - 2.553259126438264 DELTA >= -2.002076789172434
 PM[1,1]: c[0,1] - c[1,1] - 5.914655485643287 delt[1]
   + 5.914655485643287 DELTA >= -5.914655485643287
 DL[0]: delt[0] >= 0
 DL[1]: delt[1] >= 0
 DU[0]: delt[0] <= 1
 DU[1]: delt[1] <= 1
 MC[0]: delt[0] - DELTA >= 0
 MC[1]: delt[1] - DELTA >= 0
 MC[2]: delt[0] + delt[1] - DELTA <= 1
 MC[3]: DELTA >= 0
 LBt[0,0]: c[1,0] + 1.490828496756954 delt[0] + 1.490828496756954 delt[1]
   - 1.490828496756954 DELTA + 155.2233335542816 eta[0,0,0]
   <= 160.8160999591602
 LBt[0,1]: c[1,1] - 4.833644408347414 delt[0] + 4.833644408347414 DELTA
   + 155.2233335542816 eta[0,0,1] <= 157.1508558236483
 LBt[1,0]: c[0,0] - 1.06243062968131 DELTA + 155.2233335542816 eta[0,1,0]
   <= 158.8140231699877
 LBt[1,1]: c[0,1] - 0.0810110772958728 delt[1] + 0.0810110772958728 DELTA
   + 155.2233335542816 eta[0,1,1] <= 157.0698447463524
 UBt[0,0]: c[0,0] - 2.06243062968131 delt[0] - 2.06243062968131 delt[1]
   + 2.06243062968131 DELTA - 155.2233335542816 eta[1,0,0]
   >= -151.6326439385755
 UBt[0,1]: c[0,1] + 0.0810123493689296 delt[0] - 0.0810123493689296 DELTA
   - 155.2233335542816 eta[1,0,1] >= -152.2958100128419
 UBt[1,0]: c[1,0] + 0.4908284967569543 DELTA - 155.2233335542816 eta[1,1,0]
   >= -149.630567149403
 UBt[1,1]: c[1,1] + 4.833643136274357 delt[1] - 4.833643136274357 DELTA
   - 155.2233335542816 eta[1,1,1] >= -147.4621668765675
 PMt[0,0]: - c[0,0] + c[1,0] + 3.553259126438264 delt[0]
   + 3.553259126438264 delt[1] - 3.553259126438264 DELTA
   + 155.2233335542816 eta[2,0,0] <= 157.225410343454
 PMt[0,1]: - c[0,1] + c[1,1] - 5.914656757716344 delt[0]
   + 5.914656757716344 DELTA + 155.2233335542816 eta[2,0,1]
   <= 154.2233322822085
 PMt[1,0]: c[0,0] - c[1,0] - 2.553259126438264 DELTA
   + 155.2233335542816 eta[2,1,0] <= 153.2212567651092
 PMt[1,1]: c[0,1] - c[1,1] - 5.914655485643287 delt[1]
   + 5.914655485643287 DELTA + 155.2233335542816 eta[2,1,1]
   <= 149.3086780686383
 DLt[0]: delt[0] + eta[3,0,0] <= 1
 DLt[1]: delt[1] + eta[3,0,1] <= 1
 DUt[0]: delt[0] - eta[3,1,0] >= 0
 DUt[1]: delt[1] - eta[3,1,1] >= 0
 MCt[0]: delt[0] - DELTA + zeta[0] <= 1
 MCt[1]: delt[1] - DELTA + zeta[1] <= 1
 MCt[2]: delt[0] + delt[1] - DELTA - zeta[2] >= 0
 MCt[3]: DELTA + zeta[3] <= 1
 Tite: eta[0,0,0] + eta[0,0,1] + eta[0,1,0] + eta[0,1,1] + eta[1,0,0]
   + eta[1,0,1] + eta[1,1,0] + eta[1,1,1] + eta[2,0,0] + eta[2,0,1]
   + eta[2,1,0] + eta[2,1,1] + eta[3,0,0] + eta[3,0,1] + eta[3,1,0]
   + eta[3,1,1] + zeta[0] + zeta[1] + zeta[2] + zeta[3] = 7
 Covr1.A[0,0]: eta[0,0,0] + eta[1,0,0] + eta[2,0,0] + zeta[2] <= 3
 Covr1.A[0,1]: eta[0,0,1] + eta[1,0,1] + eta[2,0,1] + zeta[0] <= 3
 Covr1.A[1,0]: eta[0,1,0] + eta[1,1,0] + eta[2,1,0] + zeta[3] <= 3
 Covr1.A[1,1]: eta[0,1,1] + eta[1,1,1] + eta[2,1,1] + zeta[1] <= 3
 Covr1.B[0,0]: eta[3,0,0] + zeta[0] + zeta[3] <= 2
 Covr1.B[0,1]: eta[3,0,1] + zeta[1] + zeta[3] <= 2
 Covr1.B[1,0]: eta[3,1,0] + zeta[1] + zeta[2] <= 2
 Covr1.B[1,1]: eta[3,1,1] + zeta[0] + zeta[2] <= 2
 Covr1.C.i[0,0]: eta[0,1,0] + eta[1,1,0] + eta[2,1,0] + eta[3,0,0]
   + zeta[0] + zeta[3] <= 4
 Covr1.C.i[0,1]: eta[0,1,0] + eta[1,1,0] + eta[2,1,0] + eta[3,0,1]
   + zeta[1] + zeta[3] <= 4
 Covr1.C.i[1,0]: eta[0,0,0] + eta[1,0,0] + eta[2,0,0] + eta[3,1,0]
   + zeta[1] + zeta[2] <= 4
 Covr1.C.i[1,1]: eta[0,0,0] + eta[1,0,0] + eta[2,0,0] + eta[3,1,1]
   + zeta[0] + zeta[2] <= 4
 Covr1.C.ii[0,0]: eta[0,0,1] + eta[1,0,1] + eta[2,0,1] + eta[3,0,0]
   + zeta[0] + zeta[3] <= 4
 Covr1.C.ii[0,1]: eta[0,1,1] + eta[1,1,1] + eta[2,1,1] + eta[3,0,1]
   + zeta[1] + zeta[3] <= 4
 Covr1.C.ii[1,0]: eta[0,1,1] + eta[1,1,1] + eta[2,1,1] + eta[3,1,0]
   + zeta[1] + zeta[2] <= 4
 Covr1.C.ii[1,1]: eta[0,0,1] + eta[1,0,1] + eta[2,0,1] + eta[3,1,1]
   + zeta[0] + zeta[2] <= 4
 Covr1.C.iii[0,0]: eta[0,0,1] + eta[0,1,0] + eta[1,0,1] + eta[1,1,0]
   + eta[2,0,1] + eta[2,1,0] + eta[3,0,0] + zeta[0] + zeta[3] <= 6
 Covr1.C.iii[0,1]: eta[0,1,0] + eta[0,1,1] + eta[1,1,0] + eta[1,1,1]
   + eta[2,1,0] + eta[2,1,1] + eta[3,0,1] + zeta[1] + zeta[3] <= 6
 Covr1.C.iii[1,0]: eta[0,0,0] + eta[0,1,1] + eta[1,0,0] + eta[1,1,1]
   + eta[2,0,0] + eta[2,1,1] + eta[3,1,0] + zeta[1] + zeta[2] <= 6
 Covr1.C.iii[1,1]: eta[0,0,0] + eta[0,0,1] + eta[1,0,0] + eta[1,0,1]
   + eta[2,0,0] + eta[2,0,1] + eta[3,1,1] + zeta[0] + zeta[2] <= 6
 Covr2.A[0,0]: eta[0,0,0] + eta[1,0,0] + eta[2,0,0] <= 2
 Covr2.B[0,0,0]: eta[0,0,0] + eta[0,1,0] + eta[2,1,0] + zeta[0] + zeta[1]
   <= 4
 Covr2.B[0,0,1]: eta[1,0,0] + eta[1,1,0] + eta[2,1,0] + zeta[0] + zeta[1]
   <= 4
 Covr2.C[0,0,0,0]: eta[0,0,0] + eta[0,0,1] + eta[0,1,0] + eta[1,0,1]
   + eta[2,0,1] + eta[2,1,0] + zeta[0] + zeta[1] <= 6
 Covr2.C[0,0,0,1]: eta[0,0,0] + eta[0,1,0] + eta[0,1,1] + eta[1,1,1]
   + eta[2,1,0] + eta[2,1,1] + zeta[0] + zeta[1] <= 6
 Covr2.C[0,0,1,0]: eta[0,0,1] + eta[1,0,0] + eta[1,0,1] + eta[1,1,0]
   + eta[2,0,1] + eta[2,1,0] + zeta[0] + zeta[1] <= 6
 Covr2.C[0,0,1,1]: eta[0,1,1] + eta[1,0,0] + eta[1,1,0] + eta[1,1,1]
   + eta[2,1,0] + eta[2,1,1] + zeta[0] + zeta[1] <= 6
 Obj1[0]: - 2 delt[0] + phi[0] <= 0
 Obj1[1]: - 2 delt[1] + phi[1] <= 0
 Obj2[0]: 2 delt[0] + phi[0] <= 2
 Obj2[1]: 2 delt[1] + phi[1] <= 2
 Obj3: - 2 DELTA + phi[2] <= 0
 Obj4: 2 DELTA + phi[2] <= 2
Bounds
Binaries
 eta[0,0,0] eta[0,0,1] eta[0,1,0] eta[0,1,1] eta[1,0,0] eta[1,0,1]
 eta[1,1,0] eta[1,1,1] eta[2,0,0] eta[2,0,1] eta[2,1,0] eta[2,1,1]
 eta[3,0,0] eta[3,0,1] eta[3,1,0] eta[3,1,1] zeta[0] zeta[1] zeta[2]
 zeta[3]
End
