\ Model D-SBM-((0, 1), (1, 0))
\ LP format - for model browsing. Use MPS format to capture full model detail.
\ Signature: 0x2ac943e04c43ce2b
Maximize
  phi[0] + phi[1] + phi[2]
Subject To
 LB[0,0]: c[1,0] + 8.994541436131076 delt[0] + 8.994541436131076 delt[1]
   - 8.994541436131076 DELTA >= 8.997424886126842
 LB[0,1]: c[1,1] - 4.708696719511015 delt[0] + 4.708696719511015 DELTA
   >= 5.4481276194451311e-04
 LB[1,0]: c[0,0] - 1.000305606938722 DELTA >= 0.8684098628231272
 LB[1,1]: c[0,1] + 0.3330940243242697 delt[1] - 0.3330940243242697 DELTA
   >= 3.385488933751478
 UB[0,0]: c[0,0] - 0.000305607 delt[0] - 0.000305607 delt[1]
   + 0.000305607 DELTA <= 1.868409862823126
 UB[0,1]: c[0,1] + 1.31441954619735 delt[0] - 1.31441954619735 DELTA
   <= 4.699908479948828
 UB[1,0]: c[1,0] + 9.994541436131076 DELTA <= 9.997424886126842
 UB[1,1]: c[1,1] + 3.061183148989395 delt[1] - 3.061183148989395 DELTA
   <= 4.709241532272959
 PM[0,0]: - c[0,0] + c[1,0] + 9.994847043069798 delt[0]
   + 9.994847043069798 delt[1] - 9.994847043069798 DELTA
   >= 8.129015023303715
 PM[0,1]: - c[0,1] + c[1,1] - 6.023116265708365 delt[0]
   + 6.023116265708365 DELTA >= -4.699363667186883
 PM[1,0]: c[0,0] - c[1,0] - 10.9948470430698 DELTA >= -9.129015023303715
 PM[1,1]: c[0,1] - c[1,1] - 4.375602695186745 delt[1]
   + 4.375602695186745 DELTA >= -1.323752598521482
 DL[0]: delt[0] >= 0
 DL[1]: delt[1] >= 0
 DU[0]: delt[0] <= 1
 DU[1]: delt[1] <= 1
 MC[0]: delt[0] - DELTA >= 0
 MC[1]: delt[1] - DELTA >= 0
 MC[2]: delt[0] + delt[1] - DELTA <= 1
 MC[3]: DELTA >= 0
 LBt[0,0]: c[1,0] + 8.994541436131076 delt[0] + 8.994541436131076 delt[1]
   - 8.994541436131076 DELTA + 199.9484977225368 eta[0,0,0]
   <= 208.9459226086637
 LBt[0,1]: c[1,1] - 4.708696719511015 delt[0] + 4.708696719511015 DELTA
   + 199.9484977225368 eta[0,0,1] <= 199.9490425352988
 LBt[1,0]: c[0,0] - 1.000305606938722 DELTA + 199.9484977225368 eta[0,1,0]
   <= 200.81690758536
 LBt[1,1]: c[0,1] + 0.3330940243242697 delt[1] - 0.3330940243242697 DELTA
   + 199.9484977225368 eta[0,1,1] <= 203.3339866562883
 UBt[0,0]: c[0,0] - 0.000305607 delt[0] - 0.000305607 delt[1]
   + 0.000305607 DELTA - 199.9484977225368 eta[1,0,0]
   >= -198.0800878597137
 UBt[0,1]: c[0,1] + 1.31441954619735 delt[0] - 1.31441954619735 DELTA
   - 199.9484977225368 eta[1,0,1] >= -195.248589242588
 UBt[1,0]: c[1,0] + 9.994541436131076 DELTA - 199.9484977225368 eta[1,1,0]
   >= -189.95107283641
 UBt[1,1]: c[1,1] + 3.061183148989395 delt[1] - 3.061183148989395 DELTA
   - 199.9484977225368 eta[1,1,1] >= -195.2392561902639
 PMt[0,0]: - c[0,0] + c[1,0] + 9.994847043069798 delt[0]
   + 9.994847043069798 delt[1] - 9.994847043069798 DELTA
   + 199.9484977225368 eta[2,0,0] <= 208.0775127458406
 PMt[0,1]: - c[0,1] + c[1,1] - 6.023116265708365 delt[0]
   + 6.023116265708365 DELTA + 199.9484977225368 eta[2,0,1]
   <= 195.24913405535
 PMt[1,0]: c[0,0] - c[1,0] - 10.9948470430698 DELTA
   + 199.9484977225368 eta[2,1,0] <= 190.8194826992331
 PMt[1,1]: c[0,1] - c[1,1] - 4.375602695186745 delt[1]
   + 4.375602695186745 DELTA + 199.9484977225368 eta[2,1,1]
   <= 198.6247451240154
 DLt[0]: delt[0] + eta[3,0,0] <= 1
 DLt[1]: delt[1] + eta[3,0,1] <= 1
 DUt[0]: delt[0] - eta[3,1,0] >= 0
 DUt[1]: delt[1] - eta[3,1,1] >= 0
 MCt[0]: delt[0] - DELTA + zeta[0] <= 1
 MCt[1]: delt[1] - DELTA + zeta[1] <= 1
 MCt[2]: delt[0] + delt[1] - DELTA - zeta[2] >= 0
 MCt[3]: DELTA + zeta[3] <= 1
 Tite: eta[0,0,0] + eta[0,0,1] + eta[0,1,0] + eta[0,1,1] + eta[1,0,0]
   + eta[1,0,1] + eta[1,1,0] + eta[1,1,1] + eta[2,0,0] + eta[2,0,1]
   + eta[2,1,0] + eta[2,1,1] + eta[3,0,0] + eta[3,0,1] + eta[3,1,0]
   + eta[3,1,1] + zeta[0] + zeta[1] + zeta[2] + zeta[3] = 7
 Covr1.A[0,0]: eta[0,0,0] + eta[1,0,0] + eta[2,0,0] + zeta[2] <= 3
 Covr1.A[0,1]: eta[0,0,1] + eta[1,0,1] + eta[2,0,1] + zeta[0] <= 3
 Covr1.A[1,0]: eta[0,1,0] + eta[1,1,0] + eta[2,1,0] + zeta[3] <= 3
 Covr1.A[1,1]: eta[0,1,1] + eta[1,1,1] + eta[2,1,1] + zeta[1] <= 3
 Covr1.B[0,0]: eta[3,0,0] + zeta[0] + zeta[3] <= 2
 Covr1.B[0,1]: eta[3,0,1] + zeta[1] + zeta[3] <= 2
 Covr1.B[1,0]: eta[3,1,0] + zeta[1] + zeta[2] <= 2
 Covr1.B[1,1]: eta[3,1,1] + zeta[0] + zeta[2] <= 2
 Covr1.C.i[0,0]: eta[0,1,0] + eta[1,1,0] + eta[2,1,0] + eta[3,0,0]
   + zeta[0] + zeta[3] <= 4
 Covr1.C.i[0,1]: eta[0,1,0] + eta[1,1,0] + eta[2,1,0] + eta[3,0,1]
   + zeta[1] + zeta[3] <= 4
 Covr1.C.i[1,0]: eta[0,0,0] + eta[1,0,0] + eta[2,0,0] + eta[3,1,0]
   + zeta[1] + zeta[2] <= 4
 Covr1.C.i[1,1]: eta[0,0,0] + eta[1,0,0] + eta[2,0,0] + eta[3,1,1]
   + zeta[0] + zeta[2] <= 4
 Covr1.C.ii[0,0]: eta[0,0,1] + eta[1,0,1] + eta[2,0,1] + eta[3,0,0]
   + zeta[0] + zeta[3] <= 4
 Covr1.C.ii[0,1]: eta[0,1,1] + eta[1,1,1] + eta[2,1,1] + eta[3,0,1]
   + zeta[1] + zeta[3] <= 4
 Covr1.C.ii[1,0]: eta[0,1,1] + eta[1,1,1] + eta[2,1,1] + eta[3,1,0]
   + zeta[1] + zeta[2] <= 4
 Covr1.C.ii[1,1]: eta[0,0,1] + eta[1,0,1] + eta[2,0,1] + eta[3,1,1]
   + zeta[0] + zeta[2] <= 4
 Covr1.C.iii[0,0]: eta[0,0,1] + eta[0,1,0] + eta[1,0,1] + eta[1,1,0]
   + eta[2,0,1] + eta[2,1,0] + eta[3,0,0] + zeta[0] + zeta[3] <= 6
 Covr1.C.iii[0,1]: eta[0,1,0] + eta[0,1,1] + eta[1,1,0] + eta[1,1,1]
   + eta[2,1,0] + eta[2,1,1] + eta[3,0,1] + zeta[1] + zeta[3] <= 6
 Covr1.C.iii[1,0]: eta[0,0,0] + eta[0,1,1] + eta[1,0,0] + eta[1,1,1]
   + eta[2,0,0] + eta[2,1,1] + eta[3,1,0] + zeta[1] + zeta[2] <= 6
 Covr1.C.iii[1,1]: eta[0,0,0] + eta[0,0,1] + eta[1,0,0] + eta[1,0,1]
   + eta[2,0,0] + eta[2,0,1] + eta[3,1,1] + zeta[0] + zeta[2] <= 6
 Covr2.A[0,1]: eta[0,0,1] + eta[1,0,1] + eta[2,0,1] <= 2
 Covr2.A[1,0]: eta[0,1,0] + eta[1,1,0] + eta[2,1,0] <= 2
 Covr2.B[0,1,0]: eta[0,0,1] + eta[0,1,1] + eta[2,1,1] + zeta[2] + zeta[3]
   <= 4
 Covr2.B[0,1,1]: eta[1,0,1] + eta[1,1,1] + eta[2,1,1] + zeta[2] + zeta[3]
   <= 4
 Covr2.B[1,0,0]: eta[0,0,0] + eta[0,1,0] + eta[2,0,0] + zeta[0] + zeta[1]
   <= 4
 Covr2.B[1,0,1]: eta[1,0,0] + eta[1,1,0] + eta[2,0,0] + zeta[0] + zeta[1]
   <= 4
 Covr2.C[0,1,0,0]: eta[0,0,0] + eta[0,0,1] + eta[0,1,1] + eta[1,0,0]
   + eta[2,0,0] + eta[2,1,1] + zeta[2] + zeta[3] <= 6
 Covr2.C[0,1,0,1]: eta[0,0,1] + eta[0,1,0] + eta[0,1,1] + eta[1,1,0]
   + eta[2,1,0] + eta[2,1,1] + zeta[2] + zeta[3] <= 6
 Covr2.C[0,1,1,0]: eta[0,0,0] + eta[1,0,0] + eta[1,0,1] + eta[1,1,1]
   + eta[2,0,0] + eta[2,1,1] + zeta[2] + zeta[3] <= 6
 Covr2.C[0,1,1,1]: eta[0,1,0] + eta[1,0,1] + eta[1,1,0] + eta[1,1,1]
   + eta[2,1,0] + eta[2,1,1] + zeta[2] + zeta[3] <= 6
 Covr2.C[1,0,0,0]: eta[0,0,0] + eta[0,0,1] + eta[0,1,0] + eta[1,0,1]
   + eta[2,0,0] + eta[2,0,1] + zeta[0] + zeta[1] <= 6
 Covr2.C[1,0,0,1]: eta[0,0,0] + eta[0,1,0] + eta[0,1,1] + eta[1,1,1]
   + eta[2,0,0] + eta[2,1,1] + zeta[0] + zeta[1] <= 6
 Covr2.C[1,0,1,0]: eta[0,0,1] + eta[1,0,0] + eta[1,0,1] + eta[1,1,0]
   + eta[2,0,0] + eta[2,0,1] + zeta[0] + zeta[1] <= 6
 Covr2.C[1,0,1,1]: eta[0,1,1] + eta[1,0,0] + eta[1,1,0] + eta[1,1,1]
   + eta[2,0,0] + eta[2,1,1] + zeta[0] + zeta[1] <= 6
 Obj1[0]: - 2 delt[0] + phi[0] <= 0
 Obj1[1]: - 2 delt[1] + phi[1] <= 0
 Obj2[0]: 2 delt[0] + phi[0] <= 2
 Obj2[1]: 2 delt[1] + phi[1] <= 2
 Obj3: - 2 DELTA + phi[2] <= 0
 Obj4: 2 DELTA + phi[2] <= 2
Bounds
Binaries
 eta[0,0,0] eta[0,0,1] eta[0,1,0] eta[0,1,1] eta[1,0,0] eta[1,0,1]
 eta[1,1,0] eta[1,1,1] eta[2,0,0] eta[2,0,1] eta[2,1,0] eta[2,1,1]
 eta[3,0,0] eta[3,0,1] eta[3,1,0] eta[3,1,1] zeta[0] zeta[1] zeta[2]
 zeta[3]
End
