\ Model D-SBM-((0, 0), (0, 0))
\ LP format - for model browsing. Use MPS format to capture full model detail.
\ Signature: 0xb35a9a8b41b153f3
Maximize
  phi[0] + phi[1] + phi[2]
Subject To
 LB[0,0]: c[1,0] + 7.591856157167291 delt[0] + 7.591856157167291 delt[1]
   - 7.591856157167291 DELTA >= 7.591856157167291
 LB[0,1]: c[1,1] >= 0
 LB[1,0]: c[0,0] + 1.186364782980464 DELTA >= 1.186364782980464
 LB[1,1]: c[0,1] - 1.1655532601797573e-04 delt[1]
   + 1.1655532601797573e-04 DELTA >= 0
 UB[0,0]: c[0,0] - 4.755095303870486 delt[0] - 4.755095303870486 delt[1]
   + 4.755095303870486 DELTA <= 2.322947757047519
 UB[0,1]: c[0,1] + 1.1655534294963132e-04 delt[0]
   - 1.1655534294963132e-04 DELTA <= 1.00011655534295
 UB[1,0]: c[1,0] + 1.650396070316341 DELTA <= 8.728439131234346
 UB[1,1]: c[1,1] - 1.69316e-11 delt[1] + 1.69316e-11 DELTA <= 1
 PM[0,0]: - c[0,0] + c[1,0] + 13.48353443510483 delt[0]
   + 13.48353443510483 delt[1] - 13.48353443510483 DELTA
   >= 6.405491374186827
 PM[0,1]: - c[0,1] + c[1,1] - 1.00011655534295 delt[0]
   + 1.00011655534295 DELTA >= -1.00011655534295
 PM[1,0]: c[0,0] - c[1,0] - 7.542074348253882 DELTA >= -7.542074348253882
 PM[1,1]: c[0,1] - c[1,1] - 1.000116555326018 delt[1]
   + 1.000116555326018 DELTA >= -1
 DL[0]: delt[0] >= 0
 DL[1]: delt[1] >= 0
 DU[0]: delt[0] <= 1
 DU[1]: delt[1] <= 1
 MC[0]: delt[0] - DELTA >= 0
 MC[1]: delt[1] - DELTA >= 0
 MC[2]: delt[0] + delt[1] - DELTA <= 1
 MC[3]: DELTA >= 0
 LBt[0,0]: c[1,0] + 7.591856157167291 delt[0] + 7.591856157167291 delt[1]
   - 7.591856157167291 DELTA + 174.5687826246869 eta[0,0,0]
   <= 182.1606387818542
 LBt[0,1]: c[1,1] + 174.5687826246869 eta[0,0,1] <= 174.5687826246869
 LBt[1,0]: c[0,0] + 1.186364782980464 DELTA + 174.5687826246869 eta[0,1,0]
   <= 175.7551474076674
 LBt[1,1]: c[0,1] - 1.1655532601797573e-04 delt[1]
   + 1.1655532601797573e-04 DELTA + 174.5687826246869 eta[0,1,1]
   <= 174.5687826246869
 UBt[0,0]: c[0,0] - 4.755095303870486 delt[0] - 4.755095303870486 delt[1]
   + 4.755095303870486 DELTA - 174.5687826246869 eta[1,0,0]
   >= -172.2458348676394
 UBt[0,1]: c[0,1] + 1.1655534294963132e-04 delt[0]
   - 1.1655534294963132e-04 DELTA - 174.5687826246869 eta[1,0,1]
   >= -173.568666069344
 UBt[1,0]: c[1,0] + 1.650396070316341 DELTA - 174.5687826246869 eta[1,1,0]
   >= -165.8403434934526
 UBt[1,1]: c[1,1] - 1.69316e-11 delt[1] + 1.69316e-11 DELTA
   - 174.5687826246869 eta[1,1,1] >= -173.5687826246869
 PMt[0,0]: - c[0,0] + c[1,0] + 13.48353443510483 delt[0]
   + 13.48353443510483 delt[1] - 13.48353443510483 DELTA
   + 174.5687826246869 eta[2,0,0] <= 180.9742739988737
 PMt[0,1]: - c[0,1] + c[1,1] - 1.00011655534295 delt[0]
   + 1.00011655534295 DELTA + 174.5687826246869 eta[2,0,1]
   <= 173.568666069344
 PMt[1,0]: c[0,0] - c[1,0] - 7.542074348253882 DELTA
   + 174.5687826246869 eta[2,1,0] <= 167.026708276433
 PMt[1,1]: c[0,1] - c[1,1] - 1.000116555326018 delt[1]
   + 1.000116555326018 DELTA + 174.5687826246869 eta[2,1,1]
   <= 173.5687826246869
 DLt[0]: delt[0] + eta[3,0,0] <= 1
 DLt[1]: delt[1] + eta[3,0,1] <= 1
 DUt[0]: delt[0] - eta[3,1,0] >= 0
 DUt[1]: delt[1] - eta[3,1,1] >= 0
 MCt[0]: delt[0] - DELTA + zeta[0] <= 1
 MCt[1]: delt[1] - DELTA + zeta[1] <= 1
 MCt[2]: delt[0] + delt[1] - DELTA - zeta[2] >= 0
 MCt[3]: DELTA + zeta[3] <= 1
 Tite: eta[0,0,0] + eta[0,0,1] + eta[0,1,0] + eta[0,1,1] + eta[1,0,0]
   + eta[1,0,1] + eta[1,1,0] + eta[1,1,1] + eta[2,0,0] + eta[2,0,1]
   + eta[2,1,0] + eta[2,1,1] + eta[3,0,0] + eta[3,0,1] + eta[3,1,0]
   + eta[3,1,1] + zeta[0] + zeta[1] + zeta[2] + zeta[3] = 7
 Covr1.A[0,0]: eta[0,0,0] + eta[1,0,0] + eta[2,0,0] + zeta[2] <= 3
 Covr1.A[0,1]: eta[0,0,1] + eta[1,0,1] + eta[2,0,1] + zeta[0] <= 3
 Covr1.A[1,0]: eta[0,1,0] + eta[1,1,0] + eta[2,1,0] + zeta[3] <= 3
 Covr1.A[1,1]: eta[0,1,1] + eta[1,1,1] + eta[2,1,1] + zeta[1] <= 3
 Covr1.B[0,0]: eta[3,0,0] + zeta[0] + zeta[3] <= 2
 Covr1.B[0,1]: eta[3,0,1] + zeta[1] + zeta[3] <= 2
 Covr1.B[1,0]: eta[3,1,0] + zeta[1] + zeta[2] <= 2
 Covr1.B[1,1]: eta[3,1,1] + zeta[0] + zeta[2] <= 2
 Covr1.C.i[0,0]: eta[0,1,0] + eta[1,1,0] + eta[2,1,0] + eta[3,0,0]
   + zeta[0] + zeta[3] <= 4
 Covr1.C.i[0,1]: eta[0,1,0] + eta[1,1,0] + eta[2,1,0] + eta[3,0,1]
   + zeta[1] + zeta[3] <= 4
 Covr1.C.i[1,0]: eta[0,0,0] + eta[1,0,0] + eta[2,0,0] + eta[3,1,0]
   + zeta[1] + zeta[2] <= 4
 Covr1.C.i[1,1]: eta[0,0,0] + eta[1,0,0] + eta[2,0,0] + eta[3,1,1]
   + zeta[0] + zeta[2] <= 4
 Covr1.C.ii[0,0]: eta[0,0,1] + eta[1,0,1] + eta[2,0,1] + eta[3,0,0]
   + zeta[0] + zeta[3] <= 4
 Covr1.C.ii[0,1]: eta[0,1,1] + eta[1,1,1] + eta[2,1,1] + eta[3,0,1]
   + zeta[1] + zeta[3] <= 4
 Covr1.C.ii[1,0]: eta[0,1,1] + eta[1,1,1] + eta[2,1,1] + eta[3,1,0]
   + zeta[1] + zeta[2] <= 4
 Covr1.C.ii[1,1]: eta[0,0,1] + eta[1,0,1] + eta[2,0,1] + eta[3,1,1]
   + zeta[0] + zeta[2] <= 4
 Covr1.C.iii[0,0]: eta[0,0,1] + eta[0,1,0] + eta[1,0,1] + eta[1,1,0]
   + eta[2,0,1] + eta[2,1,0] + eta[3,0,0] + zeta[0] + zeta[3] <= 6
 Covr1.C.iii[0,1]: eta[0,1,0] + eta[0,1,1] + eta[1,1,0] + eta[1,1,1]
   + eta[2,1,0] + eta[2,1,1] + eta[3,0,1] + zeta[1] + zeta[3] <= 6
 Covr1.C.iii[1,0]: eta[0,0,0] + eta[0,1,1] + eta[1,0,0] + eta[1,1,1]
   + eta[2,0,0] + eta[2,1,1] + eta[3,1,0] + zeta[1] + zeta[2] <= 6
 Covr1.C.iii[1,1]: eta[0,0,0] + eta[0,0,1] + eta[1,0,0] + eta[1,0,1]
   + eta[2,0,0] + eta[2,0,1] + eta[3,1,1] + zeta[0] + zeta[2] <= 6
 Obj1[0]: - 2 delt[0] + phi[0] <= 0
 Obj1[1]: - 2 delt[1] + phi[1] <= 0
 Obj2[0]: 2 delt[0] + phi[0] <= 2
 Obj2[1]: 2 delt[1] + phi[1] <= 2
 Obj3: - 2 DELTA + phi[2] <= 0
 Obj4: 2 DELTA + phi[2] <= 2
Bounds
Binaries
 eta[0,0,0] eta[0,0,1] eta[0,1,0] eta[0,1,1] eta[1,0,0] eta[1,0,1]
 eta[1,1,0] eta[1,1,1] eta[2,0,0] eta[2,0,1] eta[2,1,0] eta[2,1,1]
 eta[3,0,0] eta[3,0,1] eta[3,1,0] eta[3,1,1] zeta[0] zeta[1] zeta[2]
 zeta[3]
End
