\ Model D-SU-((1, 1), (0, 0))
\ LP format - for model browsing. Use MPS format to capture full model detail.
\ Signature: 0xd2fa267035e7f9e7
Maximize
  phi[0,0] + phi[0,1] + phi[1,0] + phi[1,1]
Subject To
 LB[0,0]: c[1,0] - 3.893503840328324 delt[0,0] >= 3.125902319676317
 LB[0,1]: c[1,1] - 2.24186525358562 delt[0,1] >= 0
 LB[1,0]: c[0,0] - 3.701691391062467 delt[1,0] >= 2.317362656921293
 LB[1,1]: c[0,1] + 1.253248379797328 delt[1,1] >= 1.253248379797328
 UB[0,0]: c[0,0] + 3.701691391062466 delt[0,0] <= 6.01905404798376
 UB[0,1]: c[0,1] + 3.670458003423222 delt[0,1] <= 10
 UB[1,0]: c[1,0] + 3.893503840328324 delt[1,0] <= 7.019406160004641
 UB[1,1]: c[1,1] - 2.68184112963493 delt[1,1] <= 7.31815887036507
 PM[0,0]: c[0,0] - c[1,0] + 7.59519523139079 delt[0,0]
   <= 2.893151728307443
 PM[0,1]: c[0,1] - c[1,1] + 10.98861687378829 delt[0,1] <= 10
 PM[1,0]: - c[0,0] + c[1,0] + 7.59519523139079 delt[1,0]
   <= 4.702043503083347
 PM[1,1]: - c[0,1] + c[1,1] + 6.064910490567742 delt[1,1]
   <= 6.064910490567742
 DB[0,0]: delt[0,0] >= 0
 DB[0,1]: delt[0,1] >= 0
 DB[1,0]: delt[1,0] >= 0
 DB[1,1]: delt[1,1] >= 0
 S1: delt[0,0] + delt[0,1] + delt[1,0] + delt[1,1] = 1
 LBt[0,0]: c[1,0] - 3.893503840328324 delt[0,0] + 100 eta[0,0,0]
   <= 103.1259023196763
 LBt[0,1]: c[1,1] - 2.24186525358562 delt[0,1] + 100 eta[0,0,1] <= 100
 LBt[1,0]: c[0,0] - 3.701691391062467 delt[1,0] + 100 eta[0,1,0]
   <= 102.3173626569213
 LBt[1,1]: c[0,1] + 1.253248379797328 delt[1,1] + 100 eta[0,1,1]
   <= 101.2532483797973
 UBt[0,0]: c[0,0] + 3.701691391062466 delt[0,0] - 100 eta[1,0,0]
   >= -93.98094595201624
 UBt[0,1]: c[0,1] + 3.670458003423222 delt[0,1] - 100 eta[1,0,1] >= -90
 UBt[1,0]: c[1,0] + 3.893503840328324 delt[1,0] - 100 eta[1,1,0]
   >= -92.98059383999536
 UBt[1,1]: c[1,1] - 2.68184112963493 delt[1,1] - 100 eta[1,1,1]
   >= -92.68184112963493
 PMt[0,0]: c[0,0] - c[1,0] + 7.59519523139079 delt[0,0] - 100 eta[2,0,0]
   >= -97.10684827169256
 PMt[0,1]: c[0,1] - c[1,1] + 10.98861687378829 delt[0,1] - 100 eta[2,0,1]
   >= -90
 PMt[1,0]: - c[0,0] + c[1,0] + 7.59519523139079 delt[1,0] - 100 eta[2,1,0]
   >= -95.29795649691665
 PMt[1,1]: - c[0,1] + c[1,1] + 6.064910490567742 delt[1,1] - 100 eta[2,1,1]
   >= -93.93508950943226
 DBt[0,0]: delt[0,0] + eta[3,0,0] <= 1
 DBt[0,1]: delt[0,1] + eta[3,0,1] <= 1
 DBt[1,0]: delt[1,0] + eta[3,1,0] <= 1
 DBt[1,1]: delt[1,1] + eta[3,1,1] <= 1
 Tite: eta[0,0,0] + eta[0,0,1] + eta[0,1,0] + eta[0,1,1] + eta[1,0,0]
   + eta[1,0,1] + eta[1,1,0] + eta[1,1,1] + eta[2,0,0] + eta[2,0,1]
   + eta[2,1,0] + eta[2,1,1] + eta[3,0,0] + eta[3,0,1] + eta[3,1,0]
   + eta[3,1,1] = 7
 Covr1.1[0,0]: eta[0,0,0] + eta[1,0,0] + eta[2,0,0] + eta[3,0,0] <= 3
 Covr1.1[0,1]: eta[0,0,1] + eta[1,0,1] + eta[2,0,1] + eta[3,0,1] <= 3
 Covr1.1[1,0]: eta[0,1,0] + eta[1,1,0] + eta[2,1,0] + eta[3,1,0] <= 3
 Covr1.1[1,1]: eta[0,1,1] + eta[1,1,1] + eta[2,1,1] + eta[3,1,1] <= 3
 Covr1.2.A[0,0]: eta[0,0,0] + eta[1,0,0] + eta[2,0,0] <= 2
 Covr1.2.A[1,0]: eta[0,1,0] + eta[1,1,0] + eta[2,1,0] <= 2
 Covr1.2.B.i[0,0]: eta[0,0,0] + eta[0,1,0] + eta[2,1,0] + eta[3,0,1]
   + eta[3,1,1] <= 4
 Covr1.2.B.i[1,0]: eta[0,0,0] + eta[0,1,0] + eta[2,0,0] + eta[3,0,1]
   + eta[3,1,1] <= 4
 Covr1.2.B.ii[0,0]: eta[0,0,0] + eta[0,0,1] + eta[0,1,0] + eta[1,0,1]
   + eta[2,0,1] + eta[2,1,0] + eta[3,1,1] <= 6
 Covr1.2.B.ii[1,0]: eta[0,0,0] + eta[0,1,0] + eta[0,1,1] + eta[1,1,1]
   + eta[2,0,0] + eta[2,1,1] + eta[3,0,1] <= 6
 Covr1.2.B.iii[0,0]: eta[0,0,0] + eta[0,1,0] + eta[0,1,1] + eta[1,1,1]
   + eta[2,1,0] + eta[2,1,1] + eta[3,0,1] <= 6
 Covr1.2.B.iii[1,0]: eta[0,0,0] + eta[0,0,1] + eta[0,1,0] + eta[1,0,1]
   + eta[2,0,0] + eta[2,0,1] + eta[3,1,1] <= 6
 Covr1.2.C.i[0,0]: eta[1,0,0] + eta[1,1,0] + eta[2,1,0] + eta[3,0,1]
   + eta[3,1,1] <= 4
 Covr1.2.C.i[1,0]: eta[1,0,0] + eta[1,1,0] + eta[2,0,0] + eta[3,0,1]
   + eta[3,1,1] <= 4
 Covr1.2.C.ii[0,0]: eta[0,0,1] + eta[1,0,0] + eta[1,0,1] + eta[1,1,0]
   + eta[2,0,1] + eta[2,1,0] + eta[3,1,1] <= 6
 Covr1.2.C.ii[1,0]: eta[0,1,1] + eta[1,0,0] + eta[1,1,0] + eta[1,1,1]
   + eta[2,0,0] + eta[2,1,1] + eta[3,0,1] <= 6
 Covr1.2.C.iii[0,0]: eta[0,1,1] + eta[1,0,0] + eta[1,1,0] + eta[1,1,1]
   + eta[2,1,0] + eta[2,1,1] + eta[3,0,1] <= 6
 Covr1.2.C.iii[1,0]: eta[0,0,1] + eta[1,0,0] + eta[1,0,1] + eta[1,1,0]
   + eta[2,0,0] + eta[2,0,1] + eta[3,1,1] <= 6
 Covr1.3.A.i[0,0]: eta[0,0,0] + eta[1,1,0] + eta[3,0,1] + eta[3,1,1] <= 3
 Covr1.3.A.i[1,0]: eta[0,1,0] + eta[1,0,0] + eta[3,0,1] + eta[3,1,1] <= 3
 Covr1.3.A.ii[0,0]: eta[0,0,0] + eta[0,0,1] + eta[1,0,1] + eta[1,1,0]
   + eta[2,0,1] + eta[3,1,1] <= 5
 Covr1.3.A.ii[1,0]: eta[0,1,0] + eta[0,1,1] + eta[1,0,0] + eta[1,1,1]
   + eta[2,1,1] + eta[3,0,1] <= 5
 Covr1.3.A.iii[0,0]: eta[0,0,0] + eta[0,1,1] + eta[1,1,0] + eta[1,1,1]
   + eta[2,1,1] + eta[3,0,1] <= 5
 Covr1.3.A.iii[1,0]: eta[0,0,1] + eta[0,1,0] + eta[1,0,0] + eta[1,0,1]
   + eta[2,0,1] + eta[3,1,1] <= 5
 Covr1.3.B.i[0,0]: eta[0,0,0] + eta[1,0,0] + eta[2,1,0] + eta[3,0,1]
   + eta[3,1,1] <= 4
 Covr1.3.B.i[1,0]: eta[0,1,0] + eta[1,1,0] + eta[2,0,0] + eta[3,0,1]
   + eta[3,1,1] <= 4
 Covr1.3.B.ii[0,0]: eta[0,0,0] + eta[0,0,1] + eta[1,0,0] + eta[1,0,1]
   + eta[2,0,1] + eta[2,1,0] + eta[3,1,1] <= 6
 Covr1.3.B.ii[1,0]: eta[0,1,0] + eta[0,1,1] + eta[1,1,0] + eta[1,1,1]
   + eta[2,0,0] + eta[2,1,1] + eta[3,0,1] <= 6
 Covr1.3.B.iii[0,0]: eta[0,0,0] + eta[0,1,1] + eta[1,0,0] + eta[1,1,1]
   + eta[2,1,0] + eta[2,1,1] + eta[3,0,1] <= 6
 Covr1.3.B.iii[1,0]: eta[0,0,1] + eta[0,1,0] + eta[1,0,1] + eta[1,1,0]
   + eta[2,0,0] + eta[2,0,1] + eta[3,1,1] <= 6
 Covr1.3.C.i[0,0]: eta[2,0,0] + eta[2,1,0] + eta[3,0,1] + eta[3,1,1] <= 3
 Covr1.3.C.i[1,0]: eta[2,0,0] + eta[2,1,0] + eta[3,0,1] + eta[3,1,1] <= 3
 Covr1.3.C.ii[0,0]: eta[0,0,1] + eta[1,0,1] + eta[2,0,0] + eta[2,0,1]
   + eta[2,1,0] + eta[3,1,1] <= 5
 Covr1.3.C.ii[1,0]: eta[0,1,1] + eta[1,1,1] + eta[2,0,0] + eta[2,1,0]
   + eta[2,1,1] + eta[3,0,1] <= 5
 Covr1.3.C.iii[0,0]: eta[0,1,1] + eta[1,1,1] + eta[2,0,0] + eta[2,1,0]
   + eta[2,1,1] + eta[3,0,1] <= 5
 Covr1.3.C.iii[1,0]: eta[0,0,1] + eta[1,0,1] + eta[2,0,0] + eta[2,0,1]
   + eta[2,1,0] + eta[3,1,1] <= 5
 Covr1.3.D[0]: eta[0,0,0] + eta[0,1,0] + eta[1,0,0] + eta[1,1,0]
   + eta[2,0,0] + eta[2,1,0] <= 3
 Obj1[0,0]: - 2 delt[0,0] + phi[0,0] <= 0
 Obj1[0,1]: - 2 delt[0,1] + phi[0,1] <= 0
 Obj1[1,0]: - 2 delt[1,0] + phi[1,0] <= 0
 Obj1[1,1]: - 2 delt[1,1] + phi[1,1] <= 0
 Obj2[0,0]: 2 delt[0,0] + phi[0,0] <= 2
 Obj2[0,1]: 2 delt[0,1] + phi[0,1] <= 2
 Obj2[1,0]: 2 delt[1,0] + phi[1,0] <= 2
 Obj2[1,1]: 2 delt[1,1] + phi[1,1] <= 2
Bounds
Binaries
 eta[0,0,0] eta[0,0,1] eta[0,1,0] eta[0,1,1] eta[1,0,0] eta[1,0,1]
 eta[1,1,0] eta[1,1,1] eta[2,0,0] eta[2,0,1] eta[2,1,0] eta[2,1,1]
 eta[3,0,0] eta[3,0,1] eta[3,1,0] eta[3,1,1]
End
