\ Model D-SU-[[1, 1], [0, 0]]
\ LP format - for model browsing. Use MPS format to capture full model detail.
\ Signature: 0x2a0bebb2396aa3b7
Maximize
  phi[0,0] + phi[0,1] + phi[1,0] + phi[1,1]
Subject To
 LB[0,0]: c[1,0] - delt[0,0] >= 2.12132435729008
 LB[0,1]: c[1,1] >= 5.557747509991122
 LB[1,0]: c[0,0] - 2.12132435729008 delt[1,0] >= 0
 LB[1,1]: c[0,1] - 5.557747509991122 delt[1,1] >= 0
 UB[0,0]: c[0,0] + 2.12132435729008 delt[0,0] <= 2.12132435729008
 UB[0,1]: c[0,1] + 5.557747509991122 delt[0,1] <= 6.557747509991122
 UB[1,0]: c[1,0] + delt[1,0] <= 3.12132435729008
 UB[1,1]: c[1,1] <= 6.557747509991121
 PM[0,0]: c[0,0] - c[1,0] + 3.12132435729008 delt[0,0] <= 0
 PM[0,1]: c[0,1] - c[1,1] + 6.557747509991121 delt[0,1] <= 1
 PM[1,0]: - c[0,0] + c[1,0] + 3.12132435729008 delt[1,0]
   <= 3.12132435729008
 PM[1,1]: - c[0,1] + c[1,1] + 6.557747509991121 delt[1,1]
   <= 6.557747509991121
 DB[0,0]: delt[0,0] >= 0
 DB[0,1]: delt[0,1] >= 0
 DB[1,0]: delt[1,0] >= 0
 DB[1,1]: delt[1,1] >= 0
 S1: delt[0,0] + delt[0,1] + delt[1,0] + delt[1,1] = 1
 LBt[0,0]: c[1,0] - delt[0,0] + 65.57747509991123 eta[0,0,0]
   <= 67.6987994572013
 LBt[0,1]: c[1,1] + 65.57747509991123 eta[0,0,1] <= 71.13522260990234
 LBt[1,0]: c[0,0] - 2.12132435729008 delt[1,0]
   + 65.57747509991123 eta[0,1,0] <= 65.57747509991123
 LBt[1,1]: c[0,1] - 5.557747509991122 delt[1,1]
   + 65.57747509991123 eta[0,1,1] <= 65.57747509991123
 UBt[0,0]: c[0,0] + 2.12132435729008 delt[0,0]
   - 65.57747509991123 eta[1,0,0] >= -63.45615074262115
 UBt[0,1]: c[0,1] + 5.557747509991122 delt[0,1]
   - 65.57747509991123 eta[1,0,1] >= -59.0197275899201
 UBt[1,0]: c[1,0] + delt[1,0] - 65.57747509991123 eta[1,1,0]
   >= -62.45615074262115
 UBt[1,1]: c[1,1] - 65.57747509991123 eta[1,1,1] >= -59.0197275899201
 PMt[0,0]: c[0,0] - c[1,0] + 3.12132435729008 delt[0,0]
   - 65.57747509991123 eta[2,0,0] >= -65.57747509991123
 PMt[0,1]: c[0,1] - c[1,1] + 6.557747509991121 delt[0,1]
   - 65.57747509991123 eta[2,0,1] >= -64.57747509991123
 PMt[1,0]: - c[0,0] + c[1,0] + 3.12132435729008 delt[1,0]
   - 65.57747509991123 eta[2,1,0] >= -62.45615074262115
 PMt[1,1]: - c[0,1] + c[1,1] + 6.557747509991121 delt[1,1]
   - 65.57747509991123 eta[2,1,1] >= -59.0197275899201
 DBt[0,0]: delt[0,0] + eta[3,0,0] <= 1
 DBt[0,1]: delt[0,1] + eta[3,0,1] <= 1
 DBt[1,0]: delt[1,0] + eta[3,1,0] <= 1
 DBt[1,1]: delt[1,1] + eta[3,1,1] <= 1
 Tite: eta[0,0,0] + eta[0,0,1] + eta[0,1,0] + eta[0,1,1] + eta[1,0,0]
   + eta[1,0,1] + eta[1,1,0] + eta[1,1,1] + eta[2,0,0] + eta[2,0,1]
   + eta[2,1,0] + eta[2,1,1] + eta[3,0,0] + eta[3,0,1] + eta[3,1,0]
   + eta[3,1,1] = 7
 Covr1[0,0]: eta[0,0,0] + eta[1,0,0] + eta[2,0,0] + eta[3,0,0] <= 3
 Covr1[0,1]: eta[0,0,1] + eta[1,0,1] + eta[2,0,1] + eta[3,0,1] <= 3
 Covr1[1,0]: eta[0,1,0] + eta[1,1,0] + eta[2,1,0] + eta[3,1,0] <= 3
 Covr1[1,1]: eta[0,1,1] + eta[1,1,1] + eta[2,1,1] + eta[3,1,1] <= 3
 Covr2.a[0,0]: eta[0,0,0] + eta[1,0,0] + eta[2,0,0] <= 2
 Covr2.a[1,0]: eta[0,1,0] + eta[1,1,0] + eta[2,1,0] <= 2
 Covr2.b[0,0]: eta[0,0,0] + eta[0,1,0] + eta[2,1,0] + eta[3,0,1]
   + eta[3,1,1] <= 4
 Covr2.b[1,0]: eta[0,0,0] + eta[0,1,0] + eta[2,0,0] + eta[3,0,1]
   + eta[3,1,1] <= 4
 Covr2.c[0,0]: eta[0,0,0] + eta[0,0,1] + eta[0,1,0] + eta[1,0,1]
   + eta[2,0,1] + eta[2,1,0] + eta[3,1,1] <= 6
 Covr2.c[1,0]: eta[0,0,0] + eta[0,1,0] + eta[0,1,1] + eta[1,1,1]
   + eta[2,0,0] + eta[2,1,1] + eta[3,0,1] <= 6
 Covr2.d[0,0]: eta[0,0,0] + eta[0,1,0] + eta[0,1,1] + eta[1,1,1]
   + eta[2,1,0] + eta[2,1,1] + eta[3,0,1] <= 6
 Covr2.d[1,0]: eta[0,0,0] + eta[0,0,1] + eta[0,1,0] + eta[1,0,1]
   + eta[2,0,0] + eta[2,0,1] + eta[3,1,1] <= 6
 Covr2.e[0,0]: eta[1,0,0] + eta[1,1,0] + eta[2,1,0] + eta[3,0,1]
   + eta[3,1,1] <= 4
 Covr2.e[1,0]: eta[1,0,0] + eta[1,1,0] + eta[2,0,0] + eta[3,0,1]
   + eta[3,1,1] <= 4
 Covr2.f[0,0]: eta[0,0,1] + eta[1,0,0] + eta[1,0,1] + eta[1,1,0]
   + eta[2,0,1] + eta[2,1,0] + eta[3,1,1] <= 6
 Covr2.f[1,0]: eta[0,1,1] + eta[1,0,0] + eta[1,1,0] + eta[1,1,1]
   + eta[2,0,0] + eta[2,1,1] + eta[3,0,1] <= 6
 Covr2.g[0,0]: eta[0,1,1] + eta[1,0,0] + eta[1,1,0] + eta[1,1,1]
   + eta[2,1,0] + eta[2,1,1] + eta[3,0,1] <= 6
 Covr2.g[1,0]: eta[0,0,1] + eta[1,0,0] + eta[1,0,1] + eta[1,1,0]
   + eta[2,0,0] + eta[2,0,1] + eta[3,1,1] <= 6
 Covr3.a.i[0,0]: eta[0,0,0] + eta[1,1,0] + eta[3,0,1] + eta[3,1,1] <= 3
 Covr3.a.i[1,0]: eta[0,1,0] + eta[1,0,0] + eta[3,0,1] + eta[3,1,1] <= 3
 Covr3.a.ii[0,0]: eta[0,0,0] + eta[0,0,1] + eta[1,0,1] + eta[1,1,0]
   + eta[2,0,1] + eta[3,1,1] <= 5
 Covr3.a.ii[1,0]: eta[0,1,0] + eta[0,1,1] + eta[1,0,0] + eta[1,1,1]
   + eta[2,1,1] + eta[3,0,1] <= 5
 Covr3.a.iii[0,0]: eta[0,0,0] + eta[0,1,1] + eta[1,1,0] + eta[1,1,1]
   + eta[2,1,1] + eta[3,0,1] <= 5
 Covr3.a.iii[1,0]: eta[0,0,1] + eta[0,1,0] + eta[1,0,0] + eta[1,0,1]
   + eta[2,0,1] + eta[3,1,1] <= 5
 Covr3.b.i[0,0]: eta[0,0,0] + eta[1,0,0] + eta[2,1,0] + eta[3,0,1]
   + eta[3,1,1] <= 4
 Covr3.b.i[1,0]: eta[0,1,0] + eta[1,1,0] + eta[2,0,0] + eta[3,0,1]
   + eta[3,1,1] <= 4
 Covr3.b.ii[0,0]: eta[0,0,0] + eta[0,0,1] + eta[1,0,0] + eta[1,0,1]
   + eta[2,0,1] + eta[2,1,0] + eta[3,1,1] <= 6
 Covr3.b.ii[1,0]: eta[0,1,0] + eta[0,1,1] + eta[1,1,0] + eta[1,1,1]
   + eta[2,0,0] + eta[2,1,1] + eta[3,0,1] <= 6
 Covr3.b.iii[0,0]: eta[0,0,0] + eta[0,1,1] + eta[1,0,0] + eta[1,1,1]
   + eta[2,1,0] + eta[2,1,1] + eta[3,0,1] <= 6
 Covr3.b.iii[1,0]: eta[0,0,1] + eta[0,1,0] + eta[1,0,1] + eta[1,1,0]
   + eta[2,0,0] + eta[2,0,1] + eta[3,1,1] <= 6
 Covr3.c.i[0,0]: eta[2,0,0] + eta[2,1,0] + eta[3,0,1] + eta[3,1,1] <= 3
 Covr3.c.i[1,0]: eta[2,0,0] + eta[2,1,0] + eta[3,0,1] + eta[3,1,1] <= 3
 Covr3.c.ii[0,0]: eta[0,0,1] + eta[1,0,1] + eta[2,0,0] + eta[2,0,1]
   + eta[2,1,0] + eta[3,1,1] <= 5
 Covr3.c.ii[1,0]: eta[0,1,1] + eta[1,1,1] + eta[2,0,0] + eta[2,1,0]
   + eta[2,1,1] + eta[3,0,1] <= 5
 Covr3.c.iii[0,0]: eta[0,1,1] + eta[1,1,1] + eta[2,0,0] + eta[2,1,0]
   + eta[2,1,1] + eta[3,0,1] <= 5
 Covr3.c.iii[1,0]: eta[0,0,1] + eta[1,0,1] + eta[2,0,0] + eta[2,0,1]
   + eta[2,1,0] + eta[3,1,1] <= 5
 Covr3.j[0]: eta[0,0,0] + eta[0,1,0] + eta[1,0,0] + eta[1,1,0] + eta[2,0,0]
   + eta[2,1,0] <= 3
 Obj1[0,0]: - 2 delt[0,0] + phi[0,0] <= 0
 Obj1[0,1]: - 2 delt[0,1] + phi[0,1] <= 0
 Obj1[1,0]: - 2 delt[1,0] + phi[1,0] <= 0
 Obj1[1,1]: - 2 delt[1,1] + phi[1,1] <= 0
 Obj2[0,0]: 2 delt[0,0] + phi[0,0] <= 2
 Obj2[0,1]: 2 delt[0,1] + phi[0,1] <= 2
 Obj2[1,0]: 2 delt[1,0] + phi[1,0] <= 2
 Obj2[1,1]: 2 delt[1,1] + phi[1,1] <= 2
Bounds
Binaries
 eta[0,0,0] eta[0,0,1] eta[0,1,0] eta[0,1,1] eta[1,0,0] eta[1,0,1]
 eta[1,1,0] eta[1,1,1] eta[2,0,0] eta[2,0,1] eta[2,1,0] eta[2,1,1]
 eta[3,0,0] eta[3,0,1] eta[3,1,0] eta[3,1,1]
End
