\ Model D-SU-((1, 0), (0, 1))
\ LP format - for model browsing. Use MPS format to capture full model detail.
\ Signature: 0x944ed4129218ecbf
Maximize
  phi[0,0] + phi[0,1] + phi[1,0] + phi[1,1]
Subject To
 LB[0,0]: c[1,0] - 8.999983111778256 delt[0,0] >= 0
 LB[0,1]: c[1,1] - 0.2476672293614515 delt[0,1] >= 3.566124544003944
 LB[1,0]: c[0,0] + 8.999983111778256 delt[1,0] >= 8.999983111778256
 LB[1,1]: c[0,1] - 3.26058080595105 delt[1,1] >= 3.432744971459017
 UB[0,0]: c[0,0] + 1.000016888221744 delt[0,0] <= 10
 UB[0,1]: c[0,1] + 2.26058080595105 delt[0,1] <= 6.693325777410067
 UB[1,0]: c[1,0] - 1.000016888221744 delt[1,0] <= 8.999983111778256
 UB[1,1]: c[1,1] + 1.247667229361451 delt[1,1] <= 4.813791773365395
 PM[0,0]: c[0,0] - c[1,0] + 10 delt[0,0] <= 10
 PM[0,1]: c[0,1] - c[1,1] + 3.508248035312501 delt[0,1]
   <= 3.127201233406123
 PM[1,0]: - c[0,0] + c[1,0] <= 0
 PM[1,1]: - c[0,1] + c[1,1] + 4.508248035312501 delt[1,1]
   <= 1.381046801906378
 DB[0,0]: delt[0,0] >= 0
 DB[0,1]: delt[0,1] >= 0
 DB[1,0]: delt[1,0] >= 0
 DB[1,1]: delt[1,1] >= 0
 S1: delt[0,0] + delt[0,1] + delt[1,0] + delt[1,1] = 1
 LBt[0,0]: c[1,0] - 8.999983111778256 delt[0,0] + 100 eta[0,0,0] <= 100
 LBt[0,1]: c[1,1] - 0.2476672293614515 delt[0,1] + 100 eta[0,0,1]
   <= 103.5661245440039
 LBt[1,0]: c[0,0] + 8.999983111778256 delt[1,0] + 100 eta[0,1,0]
   <= 108.9999831117782
 LBt[1,1]: c[0,1] - 3.26058080595105 delt[1,1] + 100 eta[0,1,1]
   <= 103.432744971459
 UBt[0,0]: c[0,0] + 1.000016888221744 delt[0,0] - 100 eta[1,0,0] >= -90
 UBt[0,1]: c[0,1] + 2.26058080595105 delt[0,1] - 100 eta[1,0,1]
   >= -93.30667422258993
 UBt[1,0]: c[1,0] - 1.000016888221744 delt[1,0] - 100 eta[1,1,0]
   >= -91.00001688822175
 UBt[1,1]: c[1,1] + 1.247667229361451 delt[1,1] - 100 eta[1,1,1]
   >= -95.18620822663461
 PMt[0,0]: c[0,0] - c[1,0] + 10 delt[0,0] - 100 eta[2,0,0] >= -90
 PMt[0,1]: c[0,1] - c[1,1] + 3.508248035312501 delt[0,1] - 100 eta[2,0,1]
   >= -96.87279876659387
 PMt[1,0]: - c[0,0] + c[1,0] - 100 eta[2,1,0] >= -100
 PMt[1,1]: - c[0,1] + c[1,1] + 4.508248035312501 delt[1,1] - 100 eta[2,1,1]
   >= -98.61895319809362
 DBt[0,0]: delt[0,0] + eta[3,0,0] <= 1
 DBt[0,1]: delt[0,1] + eta[3,0,1] <= 1
 DBt[1,0]: delt[1,0] + eta[3,1,0] <= 1
 DBt[1,1]: delt[1,1] + eta[3,1,1] <= 1
 Tite: eta[0,0,0] + eta[0,0,1] + eta[0,1,0] + eta[0,1,1] + eta[1,0,0]
   + eta[1,0,1] + eta[1,1,0] + eta[1,1,1] + eta[2,0,0] + eta[2,0,1]
   + eta[2,1,0] + eta[2,1,1] + eta[3,0,0] + eta[3,0,1] + eta[3,1,0]
   + eta[3,1,1] = 7
 Covr1.1[0,0]: eta[0,0,0] + eta[1,0,0] + eta[2,0,0] + eta[3,0,0] <= 3
 Covr1.1[0,1]: eta[0,0,1] + eta[1,0,1] + eta[2,0,1] + eta[3,0,1] <= 3
 Covr1.1[1,0]: eta[0,1,0] + eta[1,1,0] + eta[2,1,0] + eta[3,1,0] <= 3
 Covr1.1[1,1]: eta[0,1,1] + eta[1,1,1] + eta[2,1,1] + eta[3,1,1] <= 3
 Covr1.2.A[0,0]: eta[0,0,0] + eta[1,0,0] + eta[2,0,0] <= 2
 Covr1.2.A[1,1]: eta[0,1,1] + eta[1,1,1] + eta[2,1,1] <= 2
 Covr1.2.B.i[0,0]: eta[0,0,0] + eta[0,1,0] + eta[2,1,0] + eta[3,0,1]
   + eta[3,1,1] <= 4
 Covr1.2.B.i[1,1]: eta[0,0,1] + eta[0,1,1] + eta[2,0,1] + eta[3,0,0]
   + eta[3,1,0] <= 4
 Covr1.2.B.ii[0,0]: eta[0,0,0] + eta[0,0,1] + eta[0,1,0] + eta[1,0,1]
   + eta[2,0,1] + eta[2,1,0] + eta[3,1,1] <= 6
 Covr1.2.B.ii[1,1]: eta[0,0,1] + eta[0,1,0] + eta[0,1,1] + eta[1,1,0]
   + eta[2,0,1] + eta[2,1,0] + eta[3,0,0] <= 6
 Covr1.2.B.iii[0,0]: eta[0,0,0] + eta[0,1,0] + eta[0,1,1] + eta[1,1,1]
   + eta[2,1,0] + eta[2,1,1] + eta[3,0,1] <= 6
 Covr1.2.B.iii[1,1]: eta[0,0,0] + eta[0,0,1] + eta[0,1,1] + eta[1,0,0]
   + eta[2,0,0] + eta[2,0,1] + eta[3,1,0] <= 6
 Covr1.2.C.i[0,0]: eta[1,0,0] + eta[1,1,0] + eta[2,1,0] + eta[3,0,1]
   + eta[3,1,1] <= 4
 Covr1.2.C.i[1,1]: eta[1,0,1] + eta[1,1,1] + eta[2,0,1] + eta[3,0,0]
   + eta[3,1,0] <= 4
 Covr1.2.C.ii[0,0]: eta[0,0,1] + eta[1,0,0] + eta[1,0,1] + eta[1,1,0]
   + eta[2,0,1] + eta[2,1,0] + eta[3,1,1] <= 6
 Covr1.2.C.ii[1,1]: eta[0,1,0] + eta[1,0,1] + eta[1,1,0] + eta[1,1,1]
   + eta[2,0,1] + eta[2,1,0] + eta[3,0,0] <= 6
 Covr1.2.C.iii[0,0]: eta[0,1,1] + eta[1,0,0] + eta[1,1,0] + eta[1,1,1]
   + eta[2,1,0] + eta[2,1,1] + eta[3,0,1] <= 6
 Covr1.2.C.iii[1,1]: eta[0,0,0] + eta[1,0,0] + eta[1,0,1] + eta[1,1,1]
   + eta[2,0,0] + eta[2,0,1] + eta[3,1,0] <= 6
 Obj1[0,0]: - 2 delt[0,0] + phi[0,0] <= 0
 Obj1[0,1]: - 2 delt[0,1] + phi[0,1] <= 0
 Obj1[1,0]: - 2 delt[1,0] + phi[1,0] <= 0
 Obj1[1,1]: - 2 delt[1,1] + phi[1,1] <= 0
 Obj2[0,0]: 2 delt[0,0] + phi[0,0] <= 2
 Obj2[0,1]: 2 delt[0,1] + phi[0,1] <= 2
 Obj2[1,0]: 2 delt[1,0] + phi[1,0] <= 2
 Obj2[1,1]: 2 delt[1,1] + phi[1,1] <= 2
Bounds
Binaries
 eta[0,0,0] eta[0,0,1] eta[0,1,0] eta[0,1,1] eta[1,0,0] eta[1,0,1]
 eta[1,1,0] eta[1,1,1] eta[2,0,0] eta[2,0,1] eta[2,1,0] eta[2,1,1]
 eta[3,0,0] eta[3,0,1] eta[3,1,0] eta[3,1,1]
End
