\ Model D-SU-[[1, 1], [1, 0]]
\ LP format - for model browsing. Use MPS format to capture full model detail.
\ Signature: 0xc3ec4165c13d4573
Maximize
  phi[0,0] + phi[0,1] + phi[1,0] + phi[1,1]
Subject To
 LB[0,0]: c[1,0] - delt[0,0] >= 0
 LB[0,1]: c[1,1] - 4.154703398440502 delt[0,1] >= 0
 LB[1,0]: c[0,0] - delt[1,0] >= 0
 LB[1,1]: c[0,1] - 0.6033826864152241 delt[1,1] >= 3.635263273163459
 UB[0,0]: c[0,0] + delt[0,0] <= 1
 UB[0,1]: c[0,1] + 1.63563154065308 delt[0,1] <= 5.270894813816539
 UB[1,0]: c[1,0] + delt[1,0] <= 1
 UB[1,1]: c[1,1] + 3.122454544202646 delt[1,1] <= 4.154703398440502
 PM[0,0]: c[0,0] - c[1,0] + 2 delt[0,0] <= 1
 PM[0,1]: c[0,1] - c[1,1] + 5.790334939093581 delt[0,1]
   <= 5.270894813816539
 PM[1,0]: - c[0,0] + c[1,0] + 2 delt[1,0] <= 1
 PM[1,1]: - c[0,1] + c[1,1] + 4.758086084855726 delt[1,1]
   <= 0.5194401252770424
 DB[0,0]: delt[0,0] >= 0
 DB[0,1]: delt[0,1] >= 0
 DB[1,0]: delt[1,0] >= 0
 DB[1,1]: delt[1,1] >= 0
 S1: delt[0,0] + delt[0,1] + delt[1,0] + delt[1,1] = 1
 LBt[0,0]: c[1,0] - delt[0,0] + 52.70894813816539 eta[0,0,0]
   <= 52.70894813816539
 LBt[0,1]: c[1,1] - 4.154703398440502 delt[0,1]
   + 52.70894813816539 eta[0,0,1] <= 52.70894813816539
 LBt[1,0]: c[0,0] - delt[1,0] + 52.70894813816539 eta[0,1,0]
   <= 52.70894813816539
 LBt[1,1]: c[0,1] - 0.6033826864152241 delt[1,1]
   + 52.70894813816539 eta[0,1,1] <= 56.34421141132885
 UBt[0,0]: c[0,0] + delt[0,0] - 52.70894813816539 eta[1,0,0]
   >= -51.70894813816539
 UBt[0,1]: c[0,1] + 1.63563154065308 delt[0,1]
   - 52.70894813816539 eta[1,0,1] >= -47.43805332434885
 UBt[1,0]: c[1,0] + delt[1,0] - 52.70894813816539 eta[1,1,0]
   >= -51.70894813816539
 UBt[1,1]: c[1,1] + 3.122454544202646 delt[1,1]
   - 52.70894813816539 eta[1,1,1] >= -48.55424473972489
 PMt[0,0]: c[0,0] - c[1,0] + 2 delt[0,0] - 52.70894813816539 eta[2,0,0]
   >= -51.70894813816539
 PMt[0,1]: c[0,1] - c[1,1] + 5.790334939093581 delt[0,1]
   - 52.70894813816539 eta[2,0,1] >= -47.43805332434885
 PMt[1,0]: - c[0,0] + c[1,0] + 2 delt[1,0] - 52.70894813816539 eta[2,1,0]
   >= -51.70894813816539
 PMt[1,1]: - c[0,1] + c[1,1] + 4.758086084855726 delt[1,1]
   - 52.70894813816539 eta[2,1,1] >= -52.18950801288835
 DBt[0,0]: delt[0,0] + eta[3,0,0] <= 1
 DBt[0,1]: delt[0,1] + eta[3,0,1] <= 1
 DBt[1,0]: delt[1,0] + eta[3,1,0] <= 1
 DBt[1,1]: delt[1,1] + eta[3,1,1] <= 1
 Tite: eta[0,0,0] + eta[0,0,1] + eta[0,1,0] + eta[0,1,1] + eta[1,0,0]
   + eta[1,0,1] + eta[1,1,0] + eta[1,1,1] + eta[2,0,0] + eta[2,0,1]
   + eta[2,1,0] + eta[2,1,1] + eta[3,0,0] + eta[3,0,1] + eta[3,1,0]
   + eta[3,1,1] = 7
 Covr1[0,0]: eta[0,0,0] + eta[1,0,0] + eta[2,0,0] + eta[3,0,0] <= 3
 Covr1[0,1]: eta[0,0,1] + eta[1,0,1] + eta[2,0,1] + eta[3,0,1] <= 3
 Covr1[1,0]: eta[0,1,0] + eta[1,1,0] + eta[2,1,0] + eta[3,1,0] <= 3
 Covr1[1,1]: eta[0,1,1] + eta[1,1,1] + eta[2,1,1] + eta[3,1,1] <= 3
 Covr2.a[0,0]: eta[0,0,0] + eta[1,0,0] + eta[2,0,0] <= 2
 Covr2.a[0,1]: eta[0,0,1] + eta[1,0,1] + eta[2,0,1] <= 2
 Covr2.a[1,0]: eta[0,1,0] + eta[1,1,0] + eta[2,1,0] <= 2
 Covr2.b[0,0]: eta[0,0,0] + eta[0,1,0] + eta[2,1,0] + eta[3,0,1]
   + eta[3,1,1] <= 4
 Covr2.b[0,1]: eta[0,0,1] + eta[0,1,1] + eta[2,1,1] + eta[3,0,0]
   + eta[3,1,0] <= 4
 Covr2.b[1,0]: eta[0,0,0] + eta[0,1,0] + eta[2,0,0] + eta[3,0,1]
   + eta[3,1,1] <= 4
 Covr2.c[0,0]: eta[0,0,0] + eta[0,0,1] + eta[0,1,0] + eta[1,0,1]
   + eta[2,0,1] + eta[2,1,0] + eta[3,1,1] <= 6
 Covr2.c[0,1]: eta[0,0,0] + eta[0,0,1] + eta[0,1,1] + eta[1,0,0]
   + eta[2,0,0] + eta[2,1,1] + eta[3,1,0] <= 6
 Covr2.c[1,0]: eta[0,0,0] + eta[0,1,0] + eta[0,1,1] + eta[1,1,1]
   + eta[2,0,0] + eta[2,1,1] + eta[3,0,1] <= 6
 Covr2.d[0,0]: eta[0,0,0] + eta[0,1,0] + eta[0,1,1] + eta[1,1,1]
   + eta[2,1,0] + eta[2,1,1] + eta[3,0,1] <= 6
 Covr2.d[0,1]: eta[0,0,1] + eta[0,1,0] + eta[0,1,1] + eta[1,1,0]
   + eta[2,1,0] + eta[2,1,1] + eta[3,0,0] <= 6
 Covr2.d[1,0]: eta[0,0,0] + eta[0,0,1] + eta[0,1,0] + eta[1,0,1]
   + eta[2,0,0] + eta[2,0,1] + eta[3,1,1] <= 6
 Covr2.e[0,0]: eta[1,0,0] + eta[1,1,0] + eta[2,1,0] + eta[3,0,1]
   + eta[3,1,1] <= 4
 Covr2.e[0,1]: eta[1,0,1] + eta[1,1,1] + eta[2,1,1] + eta[3,0,0]
   + eta[3,1,0] <= 4
 Covr2.e[1,0]: eta[1,0,0] + eta[1,1,0] + eta[2,0,0] + eta[3,0,1]
   + eta[3,1,1] <= 4
 Covr2.f[0,0]: eta[0,0,1] + eta[1,0,0] + eta[1,0,1] + eta[1,1,0]
   + eta[2,0,1] + eta[2,1,0] + eta[3,1,1] <= 6
 Covr2.f[0,1]: eta[0,0,0] + eta[1,0,0] + eta[1,0,1] + eta[1,1,1]
   + eta[2,0,0] + eta[2,1,1] + eta[3,1,0] <= 6
 Covr2.f[1,0]: eta[0,1,1] + eta[1,0,0] + eta[1,1,0] + eta[1,1,1]
   + eta[2,0,0] + eta[2,1,1] + eta[3,0,1] <= 6
 Covr2.g[0,0]: eta[0,1,1] + eta[1,0,0] + eta[1,1,0] + eta[1,1,1]
   + eta[2,1,0] + eta[2,1,1] + eta[3,0,1] <= 6
 Covr2.g[0,1]: eta[0,1,0] + eta[1,0,1] + eta[1,1,0] + eta[1,1,1]
   + eta[2,1,0] + eta[2,1,1] + eta[3,0,0] <= 6
 Covr2.g[1,0]: eta[0,0,1] + eta[1,0,0] + eta[1,0,1] + eta[1,1,0]
   + eta[2,0,0] + eta[2,0,1] + eta[3,1,1] <= 6
 Covr3.a.i[0,0]: eta[0,0,0] + eta[1,1,0] + eta[3,0,1] + eta[3,1,1] <= 3
 Covr3.a.i[1,0]: eta[0,1,0] + eta[1,0,0] + eta[3,0,1] + eta[3,1,1] <= 3
 Covr3.a.ii[0,0]: eta[0,0,0] + eta[0,0,1] + eta[1,0,1] + eta[1,1,0]
   + eta[2,0,1] + eta[3,1,1] <= 5
 Covr3.a.ii[1,0]: eta[0,1,0] + eta[0,1,1] + eta[1,0,0] + eta[1,1,1]
   + eta[2,1,1] + eta[3,0,1] <= 5
 Covr3.a.iii[0,0]: eta[0,0,0] + eta[0,1,1] + eta[1,1,0] + eta[1,1,1]
   + eta[2,1,1] + eta[3,0,1] <= 5
 Covr3.a.iii[1,0]: eta[0,0,1] + eta[0,1,0] + eta[1,0,0] + eta[1,0,1]
   + eta[2,0,1] + eta[3,1,1] <= 5
 Covr3.b.i[0,0]: eta[0,0,0] + eta[1,0,0] + eta[2,1,0] + eta[3,0,1]
   + eta[3,1,1] <= 4
 Covr3.b.i[1,0]: eta[0,1,0] + eta[1,1,0] + eta[2,0,0] + eta[3,0,1]
   + eta[3,1,1] <= 4
 Covr3.b.ii[0,0]: eta[0,0,0] + eta[0,0,1] + eta[1,0,0] + eta[1,0,1]
   + eta[2,0,1] + eta[2,1,0] + eta[3,1,1] <= 6
 Covr3.b.ii[1,0]: eta[0,1,0] + eta[0,1,1] + eta[1,1,0] + eta[1,1,1]
   + eta[2,0,0] + eta[2,1,1] + eta[3,0,1] <= 6
 Covr3.b.iii[0,0]: eta[0,0,0] + eta[0,1,1] + eta[1,0,0] + eta[1,1,1]
   + eta[2,1,0] + eta[2,1,1] + eta[3,0,1] <= 6
 Covr3.b.iii[1,0]: eta[0,0,1] + eta[0,1,0] + eta[1,0,1] + eta[1,1,0]
   + eta[2,0,0] + eta[2,0,1] + eta[3,1,1] <= 6
 Covr3.c.i[0,0]: eta[2,0,0] + eta[2,1,0] + eta[3,0,1] + eta[3,1,1] <= 3
 Covr3.c.i[1,0]: eta[2,0,0] + eta[2,1,0] + eta[3,0,1] + eta[3,1,1] <= 3
 Covr3.c.ii[0,0]: eta[0,0,1] + eta[1,0,1] + eta[2,0,0] + eta[2,0,1]
   + eta[2,1,0] + eta[3,1,1] <= 5
 Covr3.c.ii[1,0]: eta[0,1,1] + eta[1,1,1] + eta[2,0,0] + eta[2,1,0]
   + eta[2,1,1] + eta[3,0,1] <= 5
 Covr3.c.iii[0,0]: eta[0,1,1] + eta[1,1,1] + eta[2,0,0] + eta[2,1,0]
   + eta[2,1,1] + eta[3,0,1] <= 5
 Covr3.c.iii[1,0]: eta[0,0,1] + eta[1,0,1] + eta[2,0,0] + eta[2,0,1]
   + eta[2,1,0] + eta[3,1,1] <= 5
 Covr3.j[0]: eta[0,0,0] + eta[0,1,0] + eta[1,0,0] + eta[1,1,0] + eta[2,0,0]
   + eta[2,1,0] <= 3
 Obj1[0,0]: - 2 delt[0,0] + phi[0,0] <= 0
 Obj1[0,1]: - 2 delt[0,1] + phi[0,1] <= 0
 Obj1[1,0]: - 2 delt[1,0] + phi[1,0] <= 0
 Obj1[1,1]: - 2 delt[1,1] + phi[1,1] <= 0
 Obj2[0,0]: 2 delt[0,0] + phi[0,0] <= 2
 Obj2[0,1]: 2 delt[0,1] + phi[0,1] <= 2
 Obj2[1,0]: 2 delt[1,0] + phi[1,0] <= 2
 Obj2[1,1]: 2 delt[1,1] + phi[1,1] <= 2
Bounds
Binaries
 eta[0,0,0] eta[0,0,1] eta[0,1,0] eta[0,1,1] eta[1,0,0] eta[1,0,1]
 eta[1,1,0] eta[1,1,1] eta[2,0,0] eta[2,0,1] eta[2,1,0] eta[2,1,1]
 eta[3,0,0] eta[3,0,1] eta[3,1,0] eta[3,1,1]
End
