\ Model D-SU-[[1, 0], [1, 0]]
\ LP format - for model browsing. Use MPS format to capture full model detail.
\ Signature: 0xb57e812e59d130d5
Maximize
  phi[0,0] + phi[0,1] + phi[1,0] + phi[1,1]
Subject To
 LB[0,0]: c[1,0] - 1.000007497567564 delt[0,0] >= 5.769945984153413
 LB[0,1]: c[1,1] - 6.286724975600205 delt[0,1] >= 0
 LB[1,0]: c[0,0] + 0.1017597573066835 delt[1,0] >= 5.871705741460096
 LB[1,1]: c[0,1] - 0.1147129904805124 delt[1,1] >= 0
 UB[0,0]: c[0,0] + delt[0,0] <= 6.871705741460097
 UB[0,1]: c[0,1] + 1.114712990480512 delt[0,1] <= 1.114712990480512
 UB[1,0]: c[1,0] - 0.1017522597391203 delt[1,0] <= 6.769953481720977
 UB[1,1]: c[1,1] + 5.286724975600205 delt[1,1] <= 6.286724975600205
 PM[0,0]: c[0,0] - c[1,0] + 2.000007497567565 delt[0,0]
   <= 1.101759757306684
 PM[0,1]: c[0,1] - c[1,1] + 7.401437966080717 delt[0,1]
   <= 1.114712990480512
 PM[1,0]: - c[0,0] + c[1,0] + 0.8982477402608806 delt[1,0]
   <= 0.8982477402608806
 PM[1,1]: - c[0,1] + c[1,1] + 6.401437966080717 delt[1,1]
   <= 6.286724975600205
 DB[0,0]: delt[0,0] >= 0
 DB[0,1]: delt[0,1] >= 0
 DB[1,0]: delt[1,0] >= 0
 DB[1,1]: delt[1,1] >= 0
 S1: delt[0,0] + delt[0,1] + delt[1,0] + delt[1,1] = 1
 LBt[0,0]: c[1,0] - 1.000007497567564 delt[0,0]
   + 68.71705741460097 eta[0,0,0] <= 74.48700339875438
 LBt[0,1]: c[1,1] - 6.286724975600205 delt[0,1]
   + 68.71705741460097 eta[0,0,1] <= 68.71705741460097
 LBt[1,0]: c[0,0] + 0.1017597573066835 delt[1,0]
   + 68.71705741460097 eta[0,1,0] <= 74.58876315606106
 LBt[1,1]: c[0,1] - 0.1147129904805124 delt[1,1]
   + 68.71705741460097 eta[0,1,1] <= 68.71705741460097
 UBt[0,0]: c[0,0] + delt[0,0] - 68.71705741460097 eta[1,0,0]
   >= -61.84535167314088
 UBt[0,1]: c[0,1] + 1.114712990480512 delt[0,1]
   - 68.71705741460097 eta[1,0,1] >= -67.60234442412046
 UBt[1,0]: c[1,0] - 0.1017522597391203 delt[1,0]
   - 68.71705741460097 eta[1,1,0] >= -61.94710393288
 UBt[1,1]: c[1,1] + 5.286724975600205 delt[1,1]
   - 68.71705741460097 eta[1,1,1] >= -62.43033243900076
 PMt[0,0]: c[0,0] - c[1,0] + 2.000007497567565 delt[0,0]
   - 68.71705741460097 eta[2,0,0] >= -67.61529765729429
 PMt[0,1]: c[0,1] - c[1,1] + 7.401437966080717 delt[0,1]
   - 68.71705741460097 eta[2,0,1] >= -67.60234442412046
 PMt[1,0]: - c[0,0] + c[1,0] + 0.8982477402608806 delt[1,0]
   - 68.71705741460097 eta[2,1,0] >= -67.81880967434009
 PMt[1,1]: - c[0,1] + c[1,1] + 6.401437966080717 delt[1,1]
   - 68.71705741460097 eta[2,1,1] >= -62.43033243900076
 DBt[0,0]: delt[0,0] + eta[3,0,0] <= 1
 DBt[0,1]: delt[0,1] + eta[3,0,1] <= 1
 DBt[1,0]: delt[1,0] + eta[3,1,0] <= 1
 DBt[1,1]: delt[1,1] + eta[3,1,1] <= 1
 Tite: eta[0,0,0] + eta[0,0,1] + eta[0,1,0] + eta[0,1,1] + eta[1,0,0]
   + eta[1,0,1] + eta[1,1,0] + eta[1,1,1] + eta[2,0,0] + eta[2,0,1]
   + eta[2,1,0] + eta[2,1,1] + eta[3,0,0] + eta[3,0,1] + eta[3,1,0]
   + eta[3,1,1] = 7
 Covr1[0,0]: eta[0,0,0] + eta[1,0,0] + eta[2,0,0] + eta[3,0,0] <= 3
 Covr1[0,1]: eta[0,0,1] + eta[1,0,1] + eta[2,0,1] + eta[3,0,1] <= 3
 Covr1[1,0]: eta[0,1,0] + eta[1,1,0] + eta[2,1,0] + eta[3,1,0] <= 3
 Covr1[1,1]: eta[0,1,1] + eta[1,1,1] + eta[2,1,1] + eta[3,1,1] <= 3
 Covr2.a[0,0]: eta[0,0,0] + eta[1,0,0] + eta[2,0,0] <= 2
 Covr2.a[0,1]: eta[0,0,1] + eta[1,0,1] + eta[2,0,1] <= 2
 Covr2.b[0,0]: eta[0,0,0] + eta[0,1,0] + eta[2,1,0] + eta[3,0,1]
   + eta[3,1,1] <= 4
 Covr2.b[0,1]: eta[0,0,1] + eta[0,1,1] + eta[2,1,1] + eta[3,0,0]
   + eta[3,1,0] <= 4
 Covr2.c[0,0]: eta[0,0,0] + eta[0,0,1] + eta[0,1,0] + eta[1,0,1]
   + eta[2,0,1] + eta[2,1,0] + eta[3,1,1] <= 6
 Covr2.c[0,1]: eta[0,0,0] + eta[0,0,1] + eta[0,1,1] + eta[1,0,0]
   + eta[2,0,0] + eta[2,1,1] + eta[3,1,0] <= 6
 Covr2.d[0,0]: eta[0,0,0] + eta[0,1,0] + eta[0,1,1] + eta[1,1,1]
   + eta[2,1,0] + eta[2,1,1] + eta[3,0,1] <= 6
 Covr2.d[0,1]: eta[0,0,1] + eta[0,1,0] + eta[0,1,1] + eta[1,1,0]
   + eta[2,1,0] + eta[2,1,1] + eta[3,0,0] <= 6
 Covr2.e[0,0]: eta[1,0,0] + eta[1,1,0] + eta[2,1,0] + eta[3,0,1]
   + eta[3,1,1] <= 4
 Covr2.e[0,1]: eta[1,0,1] + eta[1,1,1] + eta[2,1,1] + eta[3,0,0]
   + eta[3,1,0] <= 4
 Covr2.f[0,0]: eta[0,0,1] + eta[1,0,0] + eta[1,0,1] + eta[1,1,0]
   + eta[2,0,1] + eta[2,1,0] + eta[3,1,1] <= 6
 Covr2.f[0,1]: eta[0,0,0] + eta[1,0,0] + eta[1,0,1] + eta[1,1,1]
   + eta[2,0,0] + eta[2,1,1] + eta[3,1,0] <= 6
 Covr2.g[0,0]: eta[0,1,1] + eta[1,0,0] + eta[1,1,0] + eta[1,1,1]
   + eta[2,1,0] + eta[2,1,1] + eta[3,0,1] <= 6
 Covr2.g[0,1]: eta[0,1,0] + eta[1,0,1] + eta[1,1,0] + eta[1,1,1]
   + eta[2,1,0] + eta[2,1,1] + eta[3,0,0] <= 6
 Obj1[0,0]: - 2 delt[0,0] + phi[0,0] <= 0
 Obj1[0,1]: - 2 delt[0,1] + phi[0,1] <= 0
 Obj1[1,0]: - 2 delt[1,0] + phi[1,0] <= 0
 Obj1[1,1]: - 2 delt[1,1] + phi[1,1] <= 0
 Obj2[0,0]: 2 delt[0,0] + phi[0,0] <= 2
 Obj2[0,1]: 2 delt[0,1] + phi[0,1] <= 2
 Obj2[1,0]: 2 delt[1,0] + phi[1,0] <= 2
 Obj2[1,1]: 2 delt[1,1] + phi[1,1] <= 2
Bounds
Binaries
 eta[0,0,0] eta[0,0,1] eta[0,1,0] eta[0,1,1] eta[1,0,0] eta[1,0,1]
 eta[1,1,0] eta[1,1,1] eta[2,0,0] eta[2,0,1] eta[2,1,0] eta[2,1,1]
 eta[3,0,0] eta[3,0,1] eta[3,1,0] eta[3,1,1]
End
