\ Model D-SU-((1, 1), (1, 0))
\ LP format - for model browsing. Use MPS format to capture full model detail.
\ Signature: 0xc3ec4165c13d4573
Maximize
  phi[0,0] + phi[0,1] + phi[1,0] + phi[1,1]
Subject To
 LB[0,0]: c[1,0] - delt[0,0] >= 0
 LB[0,1]: c[1,1] - 5.99530238778475 delt[0,1] >= 0
 LB[1,0]: c[0,0] - 2.000001483295431 delt[1,0] >= 1
 LB[1,1]: c[0,1] + 5.995261827873607 delt[1,1] >= 5.995261827873607
 UB[0,0]: c[0,0] + 2.000001483295431 delt[0,0] <= 3.000001483295431
 UB[0,1]: c[0,1] + 1.150518400948968 delt[0,1] <= 7.145780228822575
 UB[1,0]: c[1,0] + delt[1,0] <= 1
 UB[1,1]: c[1,1] - 1.150477841037826 delt[1,1] <= 5.99530238778475
 PM[0,0]: c[0,0] - c[1,0] + 3.000001483295431 delt[0,0]
   <= 3.000001483295431
 PM[0,1]: c[0,1] - c[1,1] + 7.145820788733718 delt[0,1]
   <= 7.145780228822575
 PM[1,0]: - c[0,0] + c[1,0] + 3.000001483295431 delt[1,0] <= 0
 PM[1,1]: - c[0,1] + c[1,1] + 4.05599e-05 delt[1,1] <= 4.05599e-05
 DB[0,0]: delt[0,0] >= 0
 DB[0,1]: delt[0,1] >= 0
 DB[1,0]: delt[1,0] >= 0
 DB[1,1]: delt[1,1] >= 0
 S1: delt[0,0] + delt[0,1] + delt[1,0] + delt[1,1] = 1
 LBt[0,0]: c[1,0] - delt[0,0] + 71.45780228822575 eta[0,0,0]
   <= 71.45780228822575
 LBt[0,1]: c[1,1] - 5.99530238778475 delt[0,1]
   + 71.45780228822575 eta[0,0,1] <= 71.45780228822575
 LBt[1,0]: c[0,0] - 2.000001483295431 delt[1,0]
   + 71.45780228822575 eta[0,1,0] <= 72.45780228822575
 LBt[1,1]: c[0,1] + 5.995261827873607 delt[1,1]
   + 71.45780228822575 eta[0,1,1] <= 77.45306411609936
 UBt[0,0]: c[0,0] + 2.000001483295431 delt[0,0]
   - 71.45780228822575 eta[1,0,0] >= -68.45780080493032
 UBt[0,1]: c[0,1] + 1.150518400948968 delt[0,1]
   - 71.45780228822575 eta[1,0,1] >= -64.31202205940318
 UBt[1,0]: c[1,0] + delt[1,0] - 71.45780228822575 eta[1,1,0]
   >= -70.45780228822575
 UBt[1,1]: c[1,1] - 1.150477841037826 delt[1,1]
   - 71.45780228822575 eta[1,1,1] >= -65.462499900441
 PMt[0,0]: c[0,0] - c[1,0] + 3.000001483295431 delt[0,0]
   - 71.45780228822575 eta[2,0,0] >= -68.45780080493032
 PMt[0,1]: c[0,1] - c[1,1] + 7.145820788733718 delt[0,1]
   - 71.45780228822575 eta[2,0,1] >= -64.31202205940318
 PMt[1,0]: - c[0,0] + c[1,0] + 3.000001483295431 delt[1,0]
   - 71.45780228822575 eta[2,1,0] >= -71.45780228822575
 PMt[1,1]: - c[0,1] + c[1,1] + 4.05599e-05 delt[1,1]
   - 71.45780228822575 eta[2,1,1] >= -71.45776172831461
 DBt[0,0]: delt[0,0] + eta[3,0,0] <= 1
 DBt[0,1]: delt[0,1] + eta[3,0,1] <= 1
 DBt[1,0]: delt[1,0] + eta[3,1,0] <= 1
 DBt[1,1]: delt[1,1] + eta[3,1,1] <= 1
 Tite: eta[0,0,0] + eta[0,0,1] + eta[0,1,0] + eta[0,1,1] + eta[1,0,0]
   + eta[1,0,1] + eta[1,1,0] + eta[1,1,1] + eta[2,0,0] + eta[2,0,1]
   + eta[2,1,0] + eta[2,1,1] + eta[3,0,0] + eta[3,0,1] + eta[3,1,0]
   + eta[3,1,1] = 7
 Covr1.1[0,0]: eta[0,0,0] + eta[1,0,0] + eta[2,0,0] + eta[3,0,0] <= 3
 Covr1.1[0,1]: eta[0,0,1] + eta[1,0,1] + eta[2,0,1] + eta[3,0,1] <= 3
 Covr1.1[1,0]: eta[0,1,0] + eta[1,1,0] + eta[2,1,0] + eta[3,1,0] <= 3
 Covr1.1[1,1]: eta[0,1,1] + eta[1,1,1] + eta[2,1,1] + eta[3,1,1] <= 3
 Covr1.2.A[0,0]: eta[0,0,0] + eta[1,0,0] + eta[2,0,0] <= 2
 Covr1.2.A[0,1]: eta[0,0,1] + eta[1,0,1] + eta[2,0,1] <= 2
 Covr1.2.A[1,0]: eta[0,1,0] + eta[1,1,0] + eta[2,1,0] <= 2
 Covr1.2.B.i[0,0]: eta[0,0,0] + eta[0,1,0] + eta[2,1,0] + eta[3,0,1]
   + eta[3,1,1] <= 4
 Covr1.2.B.i[0,1]: eta[0,0,1] + eta[0,1,1] + eta[2,1,1] + eta[3,0,0]
   + eta[3,1,0] <= 4
 Covr1.2.B.i[1,0]: eta[0,0,0] + eta[0,1,0] + eta[2,0,0] + eta[3,0,1]
   + eta[3,1,1] <= 4
 Covr1.2.B.ii[0,0]: eta[0,0,0] + eta[0,0,1] + eta[0,1,0] + eta[1,0,1]
   + eta[2,0,1] + eta[2,1,0] + eta[3,1,1] <= 6
 Covr1.2.B.ii[0,1]: eta[0,0,0] + eta[0,0,1] + eta[0,1,1] + eta[1,0,0]
   + eta[2,0,0] + eta[2,1,1] + eta[3,1,0] <= 6
 Covr1.2.B.ii[1,0]: eta[0,0,0] + eta[0,1,0] + eta[0,1,1] + eta[1,1,1]
   + eta[2,0,0] + eta[2,1,1] + eta[3,0,1] <= 6
 Covr1.2.B.iii[0,0]: eta[0,0,0] + eta[0,1,0] + eta[0,1,1] + eta[1,1,1]
   + eta[2,1,0] + eta[2,1,1] + eta[3,0,1] <= 6
 Covr1.2.B.iii[0,1]: eta[0,0,1] + eta[0,1,0] + eta[0,1,1] + eta[1,1,0]
   + eta[2,1,0] + eta[2,1,1] + eta[3,0,0] <= 6
 Covr1.2.B.iii[1,0]: eta[0,0,0] + eta[0,0,1] + eta[0,1,0] + eta[1,0,1]
   + eta[2,0,0] + eta[2,0,1] + eta[3,1,1] <= 6
 Covr1.2.C.i[0,0]: eta[1,0,0] + eta[1,1,0] + eta[2,1,0] + eta[3,0,1]
   + eta[3,1,1] <= 4
 Covr1.2.C.i[0,1]: eta[1,0,1] + eta[1,1,1] + eta[2,1,1] + eta[3,0,0]
   + eta[3,1,0] <= 4
 Covr1.2.C.i[1,0]: eta[1,0,0] + eta[1,1,0] + eta[2,0,0] + eta[3,0,1]
   + eta[3,1,1] <= 4
 Covr1.2.C.ii[0,0]: eta[0,0,1] + eta[1,0,0] + eta[1,0,1] + eta[1,1,0]
   + eta[2,0,1] + eta[2,1,0] + eta[3,1,1] <= 6
 Covr1.2.C.ii[0,1]: eta[0,0,0] + eta[1,0,0] + eta[1,0,1] + eta[1,1,1]
   + eta[2,0,0] + eta[2,1,1] + eta[3,1,0] <= 6
 Covr1.2.C.ii[1,0]: eta[0,1,1] + eta[1,0,0] + eta[1,1,0] + eta[1,1,1]
   + eta[2,0,0] + eta[2,1,1] + eta[3,0,1] <= 6
 Covr1.2.C.iii[0,0]: eta[0,1,1] + eta[1,0,0] + eta[1,1,0] + eta[1,1,1]
   + eta[2,1,0] + eta[2,1,1] + eta[3,0,1] <= 6
 Covr1.2.C.iii[0,1]: eta[0,1,0] + eta[1,0,1] + eta[1,1,0] + eta[1,1,1]
   + eta[2,1,0] + eta[2,1,1] + eta[3,0,0] <= 6
 Covr1.2.C.iii[1,0]: eta[0,0,1] + eta[1,0,0] + eta[1,0,1] + eta[1,1,0]
   + eta[2,0,0] + eta[2,0,1] + eta[3,1,1] <= 6
 Covr1.3.A.i[0,0]: eta[0,0,0] + eta[1,1,0] + eta[3,0,1] + eta[3,1,1] <= 3
 Covr1.3.A.i[1,0]: eta[0,1,0] + eta[1,0,0] + eta[3,0,1] + eta[3,1,1] <= 3
 Covr1.3.A.ii[0,0]: eta[0,0,0] + eta[0,0,1] + eta[1,0,1] + eta[1,1,0]
   + eta[2,0,1] + eta[3,1,1] <= 5
 Covr1.3.A.ii[1,0]: eta[0,1,0] + eta[0,1,1] + eta[1,0,0] + eta[1,1,1]
   + eta[2,1,1] + eta[3,0,1] <= 5
 Covr1.3.A.iii[0,0]: eta[0,0,0] + eta[0,1,1] + eta[1,1,0] + eta[1,1,1]
   + eta[2,1,1] + eta[3,0,1] <= 5
 Covr1.3.A.iii[1,0]: eta[0,0,1] + eta[0,1,0] + eta[1,0,0] + eta[1,0,1]
   + eta[2,0,1] + eta[3,1,1] <= 5
 Covr1.3.B.i[0,0]: eta[0,0,0] + eta[1,0,0] + eta[2,1,0] + eta[3,0,1]
   + eta[3,1,1] <= 4
 Covr1.3.B.i[1,0]: eta[0,1,0] + eta[1,1,0] + eta[2,0,0] + eta[3,0,1]
   + eta[3,1,1] <= 4
 Covr1.3.B.ii[0,0]: eta[0,0,0] + eta[0,0,1] + eta[1,0,0] + eta[1,0,1]
   + eta[2,0,1] + eta[2,1,0] + eta[3,1,1] <= 6
 Covr1.3.B.ii[1,0]: eta[0,1,0] + eta[0,1,1] + eta[1,1,0] + eta[1,1,1]
   + eta[2,0,0] + eta[2,1,1] + eta[3,0,1] <= 6
 Covr1.3.B.iii[0,0]: eta[0,0,0] + eta[0,1,1] + eta[1,0,0] + eta[1,1,1]
   + eta[2,1,0] + eta[2,1,1] + eta[3,0,1] <= 6
 Covr1.3.B.iii[1,0]: eta[0,0,1] + eta[0,1,0] + eta[1,0,1] + eta[1,1,0]
   + eta[2,0,0] + eta[2,0,1] + eta[3,1,1] <= 6
 Covr1.3.C.i[0,0]: eta[2,0,0] + eta[2,1,0] + eta[3,0,1] + eta[3,1,1] <= 3
 Covr1.3.C.i[1,0]: eta[2,0,0] + eta[2,1,0] + eta[3,0,1] + eta[3,1,1] <= 3
 Covr1.3.C.ii[0,0]: eta[0,0,1] + eta[1,0,1] + eta[2,0,0] + eta[2,0,1]
   + eta[2,1,0] + eta[3,1,1] <= 5
 Covr1.3.C.ii[1,0]: eta[0,1,1] + eta[1,1,1] + eta[2,0,0] + eta[2,1,0]
   + eta[2,1,1] + eta[3,0,1] <= 5
 Covr1.3.C.iii[0,0]: eta[0,1,1] + eta[1,1,1] + eta[2,0,0] + eta[2,1,0]
   + eta[2,1,1] + eta[3,0,1] <= 5
 Covr1.3.C.iii[1,0]: eta[0,0,1] + eta[1,0,1] + eta[2,0,0] + eta[2,0,1]
   + eta[2,1,0] + eta[3,1,1] <= 5
 Covr1.3.D[0]: eta[0,0,0] + eta[0,1,0] + eta[1,0,0] + eta[1,1,0]
   + eta[2,0,0] + eta[2,1,0] <= 3
 Obj1[0,0]: - 2 delt[0,0] + phi[0,0] <= 0
 Obj1[0,1]: - 2 delt[0,1] + phi[0,1] <= 0
 Obj1[1,0]: - 2 delt[1,0] + phi[1,0] <= 0
 Obj1[1,1]: - 2 delt[1,1] + phi[1,1] <= 0
 Obj2[0,0]: 2 delt[0,0] + phi[0,0] <= 2
 Obj2[0,1]: 2 delt[0,1] + phi[0,1] <= 2
 Obj2[1,0]: 2 delt[1,0] + phi[1,0] <= 2
 Obj2[1,1]: 2 delt[1,1] + phi[1,1] <= 2
Bounds
Binaries
 eta[0,0,0] eta[0,0,1] eta[0,1,0] eta[0,1,1] eta[1,0,0] eta[1,0,1]
 eta[1,1,0] eta[1,1,1] eta[2,0,0] eta[2,0,1] eta[2,1,0] eta[2,1,1]
 eta[3,0,0] eta[3,0,1] eta[3,1,0] eta[3,1,1]
End
