\ Model D-SU-((1, 1), (1, 1))
\ LP format - for model browsing. Use MPS format to capture full model detail.
\ Signature: 0x69d38e66fc32790d
Maximize
  phi[0,0] + phi[0,1] + phi[1,0] + phi[1,1]
Subject To
 LB[0,0]: c[1,0] - 3.802102017525302 delt[0,0] >= 3.160854294986609
 LB[0,1]: c[1,1] - 6.272170159483586 delt[0,1] >= 0
 LB[1,0]: c[0,0] - 4.080210618411105 delt[1,0] >= 2.184655377990736
 LB[1,1]: c[0,1] - 6.763235732433465 delt[1,1] >= 3.236764267566536
 UB[0,0]: c[0,0] + 4.080210618411104 delt[0,0] <= 6.26486599640184
 UB[0,1]: c[0,1] + 6.763235732433934 delt[0,1] <= 10
 UB[1,0]: c[1,0] + 3.802102017525302 delt[1,0] <= 6.962956312511912
 UB[1,1]: c[1,1] + 6.272170159483117 delt[1,1] <= 6.272170159483117
 PM[0,0]: c[0,0] - c[1,0] + 7.882312635936406 delt[0,0]
   <= 3.104011701415231
 PM[0,1]: c[0,1] - c[1,1] + 13.03540589191705 delt[0,1] <= 10
 PM[1,0]: - c[0,0] + c[1,0] + 7.882312635936406 delt[1,0]
   <= 4.778300934521175
 PM[1,1]: - c[0,1] + c[1,1] + 13.03540589191658 delt[1,1]
   <= 3.035405891916582
 DB[0,0]: delt[0,0] >= 0
 DB[0,1]: delt[0,1] >= 0
 DB[1,0]: delt[1,0] >= 0
 DB[1,1]: delt[1,1] >= 0
 S1: delt[0,0] + delt[0,1] + delt[1,0] + delt[1,1] = 1
 LBt[0,0]: c[1,0] - 3.802102017525302 delt[0,0] + 100 eta[0,0,0]
   <= 103.1608542949866
 LBt[0,1]: c[1,1] - 6.272170159483586 delt[0,1] + 100 eta[0,0,1] <= 100
 LBt[1,0]: c[0,0] - 4.080210618411105 delt[1,0] + 100 eta[0,1,0]
   <= 102.1846553779907
 LBt[1,1]: c[0,1] - 6.763235732433465 delt[1,1] + 100 eta[0,1,1]
   <= 103.2367642675665
 UBt[0,0]: c[0,0] + 4.080210618411104 delt[0,0] - 100 eta[1,0,0]
   >= -93.73513400359816
 UBt[0,1]: c[0,1] + 6.763235732433934 delt[0,1] - 100 eta[1,0,1] >= -90
 UBt[1,0]: c[1,0] + 3.802102017525302 delt[1,0] - 100 eta[1,1,0]
   >= -93.03704368748809
 UBt[1,1]: c[1,1] + 6.272170159483117 delt[1,1] - 100 eta[1,1,1]
   >= -93.72782984051688
 PMt[0,0]: c[0,0] - c[1,0] + 7.882312635936406 delt[0,0] - 100 eta[2,0,0]
   >= -96.89598829858477
 PMt[0,1]: c[0,1] - c[1,1] + 13.03540589191705 delt[0,1] - 100 eta[2,0,1]
   >= -90
 PMt[1,0]: - c[0,0] + c[1,0] + 7.882312635936406 delt[1,0] - 100 eta[2,1,0]
   >= -95.22169906547883
 PMt[1,1]: - c[0,1] + c[1,1] + 13.03540589191658 delt[1,1] - 100 eta[2,1,1]
   >= -96.96459410808342
 DBt[0,0]: delt[0,0] + eta[3,0,0] <= 1
 DBt[0,1]: delt[0,1] + eta[3,0,1] <= 1
 DBt[1,0]: delt[1,0] + eta[3,1,0] <= 1
 DBt[1,1]: delt[1,1] + eta[3,1,1] <= 1
 Tite: eta[0,0,0] + eta[0,0,1] + eta[0,1,0] + eta[0,1,1] + eta[1,0,0]
   + eta[1,0,1] + eta[1,1,0] + eta[1,1,1] + eta[2,0,0] + eta[2,0,1]
   + eta[2,1,0] + eta[2,1,1] + eta[3,0,0] + eta[3,0,1] + eta[3,1,0]
   + eta[3,1,1] = 7
 Covr1.1[0,0]: eta[0,0,0] + eta[1,0,0] + eta[2,0,0] + eta[3,0,0] <= 3
 Covr1.1[0,1]: eta[0,0,1] + eta[1,0,1] + eta[2,0,1] + eta[3,0,1] <= 3
 Covr1.1[1,0]: eta[0,1,0] + eta[1,1,0] + eta[2,1,0] + eta[3,1,0] <= 3
 Covr1.1[1,1]: eta[0,1,1] + eta[1,1,1] + eta[2,1,1] + eta[3,1,1] <= 3
 Covr1.2.A[0,0]: eta[0,0,0] + eta[1,0,0] + eta[2,0,0] <= 2
 Covr1.2.A[0,1]: eta[0,0,1] + eta[1,0,1] + eta[2,0,1] <= 2
 Covr1.2.A[1,0]: eta[0,1,0] + eta[1,1,0] + eta[2,1,0] <= 2
 Covr1.2.A[1,1]: eta[0,1,1] + eta[1,1,1] + eta[2,1,1] <= 2
 Covr1.2.B.i[0,0]: eta[0,0,0] + eta[0,1,0] + eta[2,1,0] + eta[3,0,1]
   + eta[3,1,1] <= 4
 Covr1.2.B.i[0,1]: eta[0,0,1] + eta[0,1,1] + eta[2,1,1] + eta[3,0,0]
   + eta[3,1,0] <= 4
 Covr1.2.B.i[1,0]: eta[0,0,0] + eta[0,1,0] + eta[2,0,0] + eta[3,0,1]
   + eta[3,1,1] <= 4
 Covr1.2.B.i[1,1]: eta[0,0,1] + eta[0,1,1] + eta[2,0,1] + eta[3,0,0]
   + eta[3,1,0] <= 4
 Covr1.2.B.ii[0,0]: eta[0,0,0] + eta[0,0,1] + eta[0,1,0] + eta[1,0,1]
   + eta[2,0,1] + eta[2,1,0] + eta[3,1,1] <= 6
 Covr1.2.B.ii[0,1]: eta[0,0,0] + eta[0,0,1] + eta[0,1,1] + eta[1,0,0]
   + eta[2,0,0] + eta[2,1,1] + eta[3,1,0] <= 6
 Covr1.2.B.ii[1,0]: eta[0,0,0] + eta[0,1,0] + eta[0,1,1] + eta[1,1,1]
   + eta[2,0,0] + eta[2,1,1] + eta[3,0,1] <= 6
 Covr1.2.B.ii[1,1]: eta[0,0,1] + eta[0,1,0] + eta[0,1,1] + eta[1,1,0]
   + eta[2,0,1] + eta[2,1,0] + eta[3,0,0] <= 6
 Covr1.2.B.iii[0,0]: eta[0,0,0] + eta[0,1,0] + eta[0,1,1] + eta[1,1,1]
   + eta[2,1,0] + eta[2,1,1] + eta[3,0,1] <= 6
 Covr1.2.B.iii[0,1]: eta[0,0,1] + eta[0,1,0] + eta[0,1,1] + eta[1,1,0]
   + eta[2,1,0] + eta[2,1,1] + eta[3,0,0] <= 6
 Covr1.2.B.iii[1,0]: eta[0,0,0] + eta[0,0,1] + eta[0,1,0] + eta[1,0,1]
   + eta[2,0,0] + eta[2,0,1] + eta[3,1,1] <= 6
 Covr1.2.B.iii[1,1]: eta[0,0,0] + eta[0,0,1] + eta[0,1,1] + eta[1,0,0]
   + eta[2,0,0] + eta[2,0,1] + eta[3,1,0] <= 6
 Covr1.2.C.i[0,0]: eta[1,0,0] + eta[1,1,0] + eta[2,1,0] + eta[3,0,1]
   + eta[3,1,1] <= 4
 Covr1.2.C.i[0,1]: eta[1,0,1] + eta[1,1,1] + eta[2,1,1] + eta[3,0,0]
   + eta[3,1,0] <= 4
 Covr1.2.C.i[1,0]: eta[1,0,0] + eta[1,1,0] + eta[2,0,0] + eta[3,0,1]
   + eta[3,1,1] <= 4
 Covr1.2.C.i[1,1]: eta[1,0,1] + eta[1,1,1] + eta[2,0,1] + eta[3,0,0]
   + eta[3,1,0] <= 4
 Covr1.2.C.ii[0,0]: eta[0,0,1] + eta[1,0,0] + eta[1,0,1] + eta[1,1,0]
   + eta[2,0,1] + eta[2,1,0] + eta[3,1,1] <= 6
 Covr1.2.C.ii[0,1]: eta[0,0,0] + eta[1,0,0] + eta[1,0,1] + eta[1,1,1]
   + eta[2,0,0] + eta[2,1,1] + eta[3,1,0] <= 6
 Covr1.2.C.ii[1,0]: eta[0,1,1] + eta[1,0,0] + eta[1,1,0] + eta[1,1,1]
   + eta[2,0,0] + eta[2,1,1] + eta[3,0,1] <= 6
 Covr1.2.C.ii[1,1]: eta[0,1,0] + eta[1,0,1] + eta[1,1,0] + eta[1,1,1]
   + eta[2,0,1] + eta[2,1,0] + eta[3,0,0] <= 6
 Covr1.2.C.iii[0,0]: eta[0,1,1] + eta[1,0,0] + eta[1,1,0] + eta[1,1,1]
   + eta[2,1,0] + eta[2,1,1] + eta[3,0,1] <= 6
 Covr1.2.C.iii[0,1]: eta[0,1,0] + eta[1,0,1] + eta[1,1,0] + eta[1,1,1]
   + eta[2,1,0] + eta[2,1,1] + eta[3,0,0] <= 6
 Covr1.2.C.iii[1,0]: eta[0,0,1] + eta[1,0,0] + eta[1,0,1] + eta[1,1,0]
   + eta[2,0,0] + eta[2,0,1] + eta[3,1,1] <= 6
 Covr1.2.C.iii[1,1]: eta[0,0,0] + eta[1,0,0] + eta[1,0,1] + eta[1,1,1]
   + eta[2,0,0] + eta[2,0,1] + eta[3,1,0] <= 6
 Covr1.3.A.i[0,0]: eta[0,0,0] + eta[1,1,0] + eta[3,0,1] + eta[3,1,1] <= 3
 Covr1.3.A.i[0,1]: eta[0,0,1] + eta[1,1,1] + eta[3,0,0] + eta[3,1,0] <= 3
 Covr1.3.A.i[1,0]: eta[0,1,0] + eta[1,0,0] + eta[3,0,1] + eta[3,1,1] <= 3
 Covr1.3.A.i[1,1]: eta[0,1,1] + eta[1,0,1] + eta[3,0,0] + eta[3,1,0] <= 3
 Covr1.3.A.ii[0,0]: eta[0,0,0] + eta[0,0,1] + eta[1,0,1] + eta[1,1,0]
   + eta[2,0,1] + eta[3,1,1] <= 5
 Covr1.3.A.ii[0,1]: eta[0,0,0] + eta[0,0,1] + eta[1,0,0] + eta[1,1,1]
   + eta[2,0,0] + eta[3,1,0] <= 5
 Covr1.3.A.ii[1,0]: eta[0,1,0] + eta[0,1,1] + eta[1,0,0] + eta[1,1,1]
   + eta[2,1,1] + eta[3,0,1] <= 5
 Covr1.3.A.ii[1,1]: eta[0,1,0] + eta[0,1,1] + eta[1,0,1] + eta[1,1,0]
   + eta[2,1,0] + eta[3,0,0] <= 5
 Covr1.3.A.iii[0,0]: eta[0,0,0] + eta[0,1,1] + eta[1,1,0] + eta[1,1,1]
   + eta[2,1,1] + eta[3,0,1] <= 5
 Covr1.3.A.iii[0,1]: eta[0,0,1] + eta[0,1,0] + eta[1,1,0] + eta[1,1,1]
   + eta[2,1,0] + eta[3,0,0] <= 5
 Covr1.3.A.iii[1,0]: eta[0,0,1] + eta[0,1,0] + eta[1,0,0] + eta[1,0,1]
   + eta[2,0,1] + eta[3,1,1] <= 5
 Covr1.3.A.iii[1,1]: eta[0,0,0] + eta[0,1,1] + eta[1,0,0] + eta[1,0,1]
   + eta[2,0,0] + eta[3,1,0] <= 5
 Covr1.3.B.i[0,0]: eta[0,0,0] + eta[1,0,0] + eta[2,1,0] + eta[3,0,1]
   + eta[3,1,1] <= 4
 Covr1.3.B.i[0,1]: eta[0,0,1] + eta[1,0,1] + eta[2,1,1] + eta[3,0,0]
   + eta[3,1,0] <= 4
 Covr1.3.B.i[1,0]: eta[0,1,0] + eta[1,1,0] + eta[2,0,0] + eta[3,0,1]
   + eta[3,1,1] <= 4
 Covr1.3.B.i[1,1]: eta[0,1,1] + eta[1,1,1] + eta[2,0,1] + eta[3,0,0]
   + eta[3,1,0] <= 4
 Covr1.3.B.ii[0,0]: eta[0,0,0] + eta[0,0,1] + eta[1,0,0] + eta[1,0,1]
   + eta[2,0,1] + eta[2,1,0] + eta[3,1,1] <= 6
 Covr1.3.B.ii[0,1]: eta[0,0,0] + eta[0,0,1] + eta[1,0,0] + eta[1,0,1]
   + eta[2,0,0] + eta[2,1,1] + eta[3,1,0] <= 6
 Covr1.3.B.ii[1,0]: eta[0,1,0] + eta[0,1,1] + eta[1,1,0] + eta[1,1,1]
   + eta[2,0,0] + eta[2,1,1] + eta[3,0,1] <= 6
 Covr1.3.B.ii[1,1]: eta[0,1,0] + eta[0,1,1] + eta[1,1,0] + eta[1,1,1]
   + eta[2,0,1] + eta[2,1,0] + eta[3,0,0] <= 6
 Covr1.3.B.iii[0,0]: eta[0,0,0] + eta[0,1,1] + eta[1,0,0] + eta[1,1,1]
   + eta[2,1,0] + eta[2,1,1] + eta[3,0,1] <= 6
 Covr1.3.B.iii[0,1]: eta[0,0,1] + eta[0,1,0] + eta[1,0,1] + eta[1,1,0]
   + eta[2,1,0] + eta[2,1,1] + eta[3,0,0] <= 6
 Covr1.3.B.iii[1,0]: eta[0,0,1] + eta[0,1,0] + eta[1,0,1] + eta[1,1,0]
   + eta[2,0,0] + eta[2,0,1] + eta[3,1,1] <= 6
 Covr1.3.B.iii[1,1]: eta[0,0,0] + eta[0,1,1] + eta[1,0,0] + eta[1,1,1]
   + eta[2,0,0] + eta[2,0,1] + eta[3,1,0] <= 6
 Covr1.3.C.i[0,0]: eta[2,0,0] + eta[2,1,0] + eta[3,0,1] + eta[3,1,1] <= 3
 Covr1.3.C.i[0,1]: eta[2,0,1] + eta[2,1,1] + eta[3,0,0] + eta[3,1,0] <= 3
 Covr1.3.C.i[1,0]: eta[2,0,0] + eta[2,1,0] + eta[3,0,1] + eta[3,1,1] <= 3
 Covr1.3.C.i[1,1]: eta[2,0,1] + eta[2,1,1] + eta[3,0,0] + eta[3,1,0] <= 3
 Covr1.3.C.ii[0,0]: eta[0,0,1] + eta[1,0,1] + eta[2,0,0] + eta[2,0,1]
   + eta[2,1,0] + eta[3,1,1] <= 5
 Covr1.3.C.ii[0,1]: eta[0,0,0] + eta[1,0,0] + eta[2,0,0] + eta[2,0,1]
   + eta[2,1,1] + eta[3,1,0] <= 5
 Covr1.3.C.ii[1,0]: eta[0,1,1] + eta[1,1,1] + eta[2,0,0] + eta[2,1,0]
   + eta[2,1,1] + eta[3,0,1] <= 5
 Covr1.3.C.ii[1,1]: eta[0,1,0] + eta[1,1,0] + eta[2,0,1] + eta[2,1,0]
   + eta[2,1,1] + eta[3,0,0] <= 5
 Covr1.3.C.iii[0,0]: eta[0,1,1] + eta[1,1,1] + eta[2,0,0] + eta[2,1,0]
   + eta[2,1,1] + eta[3,0,1] <= 5
 Covr1.3.C.iii[0,1]: eta[0,1,0] + eta[1,1,0] + eta[2,0,1] + eta[2,1,0]
   + eta[2,1,1] + eta[3,0,0] <= 5
 Covr1.3.C.iii[1,0]: eta[0,0,1] + eta[1,0,1] + eta[2,0,0] + eta[2,0,1]
   + eta[2,1,0] + eta[3,1,1] <= 5
 Covr1.3.C.iii[1,1]: eta[0,0,0] + eta[1,0,0] + eta[2,0,0] + eta[2,0,1]
   + eta[2,1,1] + eta[3,1,0] <= 5
 Covr1.3.D[0]: eta[0,0,0] + eta[0,1,0] + eta[1,0,0] + eta[1,1,0]
   + eta[2,0,0] + eta[2,1,0] <= 3
 Covr1.3.D[1]: eta[0,0,1] + eta[0,1,1] + eta[1,0,1] + eta[1,1,1]
   + eta[2,0,1] + eta[2,1,1] <= 3
 Obj1[0,0]: - 2 delt[0,0] + phi[0,0] <= 0
 Obj1[0,1]: - 2 delt[0,1] + phi[0,1] <= 0
 Obj1[1,0]: - 2 delt[1,0] + phi[1,0] <= 0
 Obj1[1,1]: - 2 delt[1,1] + phi[1,1] <= 0
 Obj2[0,0]: 2 delt[0,0] + phi[0,0] <= 2
 Obj2[0,1]: 2 delt[0,1] + phi[0,1] <= 2
 Obj2[1,0]: 2 delt[1,0] + phi[1,0] <= 2
 Obj2[1,1]: 2 delt[1,1] + phi[1,1] <= 2
Bounds
Binaries
 eta[0,0,0] eta[0,0,1] eta[0,1,0] eta[0,1,1] eta[1,0,0] eta[1,0,1]
 eta[1,1,0] eta[1,1,1] eta[2,0,0] eta[2,0,1] eta[2,1,0] eta[2,1,1]
 eta[3,0,0] eta[3,0,1] eta[3,1,0] eta[3,1,1]
End
