\ Model D-SU-[[1, 0], [0, 0]]
\ LP format - for model browsing. Use MPS format to capture full model detail.
\ Signature: 0xd8397aef0cae3f52
Maximize
  phi[0,0] + phi[0,1] + phi[1,0] + phi[1,1]
Subject To
 LB[0,0]: c[1,0] - delt[0,0] >= 2.158823267028392
 LB[0,1]: c[1,1] + 2.060529286460298 delt[0,1] >= 2.060529286460298
 LB[1,0]: c[0,0] - 5.481220943904916 delt[1,0] >= 0
 LB[1,1]: c[0,1] - 4.519916982097183 delt[1,1] >= 0
 UB[0,0]: c[0,0] + 6.481220943904916 delt[0,0] <= 6.481220943904916
 UB[0,1]: c[0,1] + 2.459387695636884 delt[0,1] <= 5.519916982097183
 UB[1,0]: c[1,0] <= 3.158823267028392
 UB[1,1]: c[1,1] <= 3.060529286460298
 PM[0,0]: c[0,0] - c[1,0] + 7.481220943904916 delt[0,0]
   <= 4.322397676876523
 PM[0,1]: c[0,1] - c[1,1] + 3.459387695636884 delt[0,1]
   <= 3.459387695636884
 PM[1,0]: - c[0,0] + c[1,0] + 6.481220943904916 delt[1,0]
   <= 3.158823267028392
 PM[1,1]: - c[0,1] + c[1,1] + 5.519916982097183 delt[1,1]
   <= 3.060529286460298
 DB[0,0]: delt[0,0] >= 0
 DB[0,1]: delt[0,1] >= 0
 DB[1,0]: delt[1,0] >= 0
 DB[1,1]: delt[1,1] >= 0
 S1: delt[0,0] + delt[0,1] + delt[1,0] + delt[1,1] = 1
 LBt[0,0]: c[1,0] - delt[0,0] + 64.81220943904916 eta[0,0,0]
   <= 66.97103270607755
 LBt[0,1]: c[1,1] + 2.060529286460298 delt[0,1]
   + 64.81220943904916 eta[0,0,1] <= 66.87273872550945
 LBt[1,0]: c[0,0] - 5.481220943904916 delt[1,0]
   + 64.81220943904916 eta[0,1,0] <= 64.81220943904916
 LBt[1,1]: c[0,1] - 4.519916982097183 delt[1,1]
   + 64.81220943904916 eta[0,1,1] <= 64.81220943904916
 UBt[0,0]: c[0,0] + 6.481220943904916 delt[0,0]
   - 64.81220943904916 eta[1,0,0] >= -58.33098849514424
 UBt[0,1]: c[0,1] + 2.459387695636884 delt[0,1]
   - 64.81220943904916 eta[1,0,1] >= -59.29229245695197
 UBt[1,0]: c[1,0] - 64.81220943904916 eta[1,1,0] >= -61.65338617202077
 UBt[1,1]: c[1,1] - 64.81220943904916 eta[1,1,1] >= -61.75168015258885
 PMt[0,0]: c[0,0] - c[1,0] + 7.481220943904916 delt[0,0]
   - 64.81220943904916 eta[2,0,0] >= -60.48981176217264
 PMt[0,1]: c[0,1] - c[1,1] + 3.459387695636884 delt[0,1]
   - 64.81220943904916 eta[2,0,1] >= -61.35282174341227
 PMt[1,0]: - c[0,0] + c[1,0] + 6.481220943904916 delt[1,0]
   - 64.81220943904916 eta[2,1,0] >= -61.65338617202077
 PMt[1,1]: - c[0,1] + c[1,1] + 5.519916982097183 delt[1,1]
   - 64.81220943904916 eta[2,1,1] >= -61.75168015258885
 DBt[0,0]: delt[0,0] + eta[3,0,0] <= 1
 DBt[0,1]: delt[0,1] + eta[3,0,1] <= 1
 DBt[1,0]: delt[1,0] + eta[3,1,0] <= 1
 DBt[1,1]: delt[1,1] + eta[3,1,1] <= 1
 Tite: eta[0,0,0] + eta[0,0,1] + eta[0,1,0] + eta[0,1,1] + eta[1,0,0]
   + eta[1,0,1] + eta[1,1,0] + eta[1,1,1] + eta[2,0,0] + eta[2,0,1]
   + eta[2,1,0] + eta[2,1,1] + eta[3,0,0] + eta[3,0,1] + eta[3,1,0]
   + eta[3,1,1] = 7
 Covr1[0,0]: eta[0,0,0] + eta[1,0,0] + eta[2,0,0] + eta[3,0,0] <= 3
 Covr1[0,1]: eta[0,0,1] + eta[1,0,1] + eta[2,0,1] + eta[3,0,1] <= 3
 Covr1[1,0]: eta[0,1,0] + eta[1,1,0] + eta[2,1,0] + eta[3,1,0] <= 3
 Covr1[1,1]: eta[0,1,1] + eta[1,1,1] + eta[2,1,1] + eta[3,1,1] <= 3
 Covr2.a[0,0]: eta[0,0,0] + eta[1,0,0] + eta[2,0,0] <= 2
 Covr2.b[0,0]: eta[0,0,0] + eta[0,1,0] + eta[2,1,0] + eta[3,0,1]
   + eta[3,1,1] <= 4
 Covr2.c[0,0]: eta[0,0,0] + eta[0,0,1] + eta[0,1,0] + eta[1,0,1]
   + eta[2,0,1] + eta[2,1,0] + eta[3,1,1] <= 6
 Covr2.d[0,0]: eta[0,0,0] + eta[0,1,0] + eta[0,1,1] + eta[1,1,1]
   + eta[2,1,0] + eta[2,1,1] + eta[3,0,1] <= 6
 Covr2.e[0,0]: eta[1,0,0] + eta[1,1,0] + eta[2,1,0] + eta[3,0,1]
   + eta[3,1,1] <= 4
 Covr2.f[0,0]: eta[0,0,1] + eta[1,0,0] + eta[1,0,1] + eta[1,1,0]
   + eta[2,0,1] + eta[2,1,0] + eta[3,1,1] <= 6
 Covr2.g[0,0]: eta[0,1,1] + eta[1,0,0] + eta[1,1,0] + eta[1,1,1]
   + eta[2,1,0] + eta[2,1,1] + eta[3,0,1] <= 6
 Obj1[0,0]: - 2 delt[0,0] + phi[0,0] <= 0
 Obj1[0,1]: - 2 delt[0,1] + phi[0,1] <= 0
 Obj1[1,0]: - 2 delt[1,0] + phi[1,0] <= 0
 Obj1[1,1]: - 2 delt[1,1] + phi[1,1] <= 0
 Obj2[0,0]: 2 delt[0,0] + phi[0,0] <= 2
 Obj2[0,1]: 2 delt[0,1] + phi[0,1] <= 2
 Obj2[1,0]: 2 delt[1,0] + phi[1,0] <= 2
 Obj2[1,1]: 2 delt[1,1] + phi[1,1] <= 2
Bounds
Binaries
 eta[0,0,0] eta[0,0,1] eta[0,1,0] eta[0,1,1] eta[1,0,0] eta[1,0,1]
 eta[1,1,0] eta[1,1,1] eta[2,0,0] eta[2,0,1] eta[2,1,0] eta[2,1,1]
 eta[3,0,0] eta[3,0,1] eta[3,1,0] eta[3,1,1]
End
