\ Model D-SU-((1, 0), (0, 0))
\ LP format - for model browsing. Use MPS format to capture full model detail.
\ Signature: 0x767b2bb74a08b552
Maximize
  phi[0,0] + phi[0,1] + phi[1,0] + phi[1,1]
Subject To
 LB[0,0]: c[1,0] - 2.209633062302546 delt[0,0] >= 3.431511890832615
 LB[0,1]: c[1,1] >= 0
 LB[1,0]: c[0,0] - 1.14131e-06 delt[1,0] >= 3.616797459452046
 LB[1,1]: c[0,1] >= 0
 UB[0,0]: c[0,0] + 1.000001141313073 delt[0,0] <= 4.616798600765119
 UB[0,1]: c[0,1] <= 1
 UB[1,0]: c[1,0] + 1.209633062302546 delt[1,0] <= 5.641144953135161
 UB[1,1]: c[1,1] <= 1
 PM[0,0]: c[0,0] - c[1,0] + 3.209634203615618 delt[0,0]
   <= 1.185286709932504
 PM[0,1]: c[0,1] - c[1,1] + delt[0,1] <= 1
 PM[1,0]: - c[0,0] + c[1,0] + 2.209634203615619 delt[1,0]
   <= 2.024347493683115
 PM[1,1]: - c[0,1] + c[1,1] + delt[1,1] <= 1
 DB[0,0]: delt[0,0] >= 0
 DB[0,1]: delt[0,1] >= 0
 DB[1,0]: delt[1,0] >= 0
 DB[1,1]: delt[1,1] >= 0
 S1: delt[0,0] + delt[0,1] + delt[1,0] + delt[1,1] = 1
 LBt[0,0]: c[1,0] - 2.209633062302546 delt[0,0]
   + 56.41144953135161 eta[0,0,0] <= 59.84296142218422
 LBt[0,1]: c[1,1] + 56.41144953135161 eta[0,0,1] <= 56.41144953135161
 LBt[1,0]: c[0,0] - 1.14131e-06 delt[1,0] + 56.41144953135161 eta[0,1,0]
   <= 60.02824699080365
 LBt[1,1]: c[0,1] + 56.41144953135161 eta[0,1,1] <= 56.41144953135161
 UBt[0,0]: c[0,0] + 1.000001141313073 delt[0,0]
   - 56.41144953135161 eta[1,0,0] >= -51.79465093058649
 UBt[0,1]: c[0,1] - 56.41144953135161 eta[1,0,1] >= -55.41144953135161
 UBt[1,0]: c[1,0] + 1.209633062302546 delt[1,0]
   - 56.41144953135161 eta[1,1,0] >= -50.77030457821645
 UBt[1,1]: c[1,1] - 56.41144953135161 eta[1,1,1] >= -55.41144953135161
 PMt[0,0]: c[0,0] - c[1,0] + 3.209634203615618 delt[0,0]
   - 56.41144953135161 eta[2,0,0] >= -55.2261628214191
 PMt[0,1]: c[0,1] - c[1,1] + delt[0,1] - 56.41144953135161 eta[2,0,1]
   >= -55.41144953135161
 PMt[1,0]: - c[0,0] + c[1,0] + 2.209634203615619 delt[1,0]
   - 56.41144953135161 eta[2,1,0] >= -54.38710203766849
 PMt[1,1]: - c[0,1] + c[1,1] + delt[1,1] - 56.41144953135161 eta[2,1,1]
   >= -55.41144953135161
 DBt[0,0]: delt[0,0] + eta[3,0,0] <= 1
 DBt[0,1]: delt[0,1] + eta[3,0,1] <= 1
 DBt[1,0]: delt[1,0] + eta[3,1,0] <= 1
 DBt[1,1]: delt[1,1] + eta[3,1,1] <= 1
 Tite: eta[0,0,0] + eta[0,0,1] + eta[0,1,0] + eta[0,1,1] + eta[1,0,0]
   + eta[1,0,1] + eta[1,1,0] + eta[1,1,1] + eta[2,0,0] + eta[2,0,1]
   + eta[2,1,0] + eta[2,1,1] + eta[3,0,0] + eta[3,0,1] + eta[3,1,0]
   + eta[3,1,1] = 7
 Covr1.1[0,0]: eta[0,0,0] + eta[1,0,0] + eta[2,0,0] + eta[3,0,0] <= 3
 Covr1.1[0,1]: eta[0,0,1] + eta[1,0,1] + eta[2,0,1] + eta[3,0,1] <= 3
 Covr1.1[1,0]: eta[0,1,0] + eta[1,1,0] + eta[2,1,0] + eta[3,1,0] <= 3
 Covr1.1[1,1]: eta[0,1,1] + eta[1,1,1] + eta[2,1,1] + eta[3,1,1] <= 3
 Covr1.2.A[0,0]: eta[0,0,0] + eta[1,0,0] + eta[2,0,0] <= 2
 Covr1.2.B.i[0,0]: eta[0,0,0] + eta[0,1,0] + eta[2,1,0] + eta[3,0,1]
   + eta[3,1,1] <= 4
 Covr1.2.B.ii[0,0]: eta[0,0,0] + eta[0,0,1] + eta[0,1,0] + eta[1,0,1]
   + eta[2,0,1] + eta[2,1,0] + eta[3,1,1] <= 6
 Covr1.2.B.iii[0,0]: eta[0,0,0] + eta[0,1,0] + eta[0,1,1] + eta[1,1,1]
   + eta[2,1,0] + eta[2,1,1] + eta[3,0,1] <= 6
 Covr1.2.C.i[0,0]: eta[1,0,0] + eta[1,1,0] + eta[2,1,0] + eta[3,0,1]
   + eta[3,1,1] <= 4
 Covr1.2.C.ii[0,0]: eta[0,0,1] + eta[1,0,0] + eta[1,0,1] + eta[1,1,0]
   + eta[2,0,1] + eta[2,1,0] + eta[3,1,1] <= 6
 Covr1.2.C.iii[0,0]: eta[0,1,1] + eta[1,0,0] + eta[1,1,0] + eta[1,1,1]
   + eta[2,1,0] + eta[2,1,1] + eta[3,0,1] <= 6
 Obj1[0,0]: - 2 delt[0,0] + phi[0,0] <= 0
 Obj1[0,1]: - 2 delt[0,1] + phi[0,1] <= 0
 Obj1[1,0]: - 2 delt[1,0] + phi[1,0] <= 0
 Obj1[1,1]: - 2 delt[1,1] + phi[1,1] <= 0
 Obj2[0,0]: 2 delt[0,0] + phi[0,0] <= 2
 Obj2[0,1]: 2 delt[0,1] + phi[0,1] <= 2
 Obj2[1,0]: 2 delt[1,0] + phi[1,0] <= 2
 Obj2[1,1]: 2 delt[1,1] + phi[1,1] <= 2
Bounds
Binaries
 eta[0,0,0] eta[0,0,1] eta[0,1,0] eta[0,1,1] eta[1,0,0] eta[1,0,1]
 eta[1,1,0] eta[1,1,1] eta[2,0,0] eta[2,0,1] eta[2,1,0] eta[2,1,1]
 eta[3,0,0] eta[3,0,1] eta[3,1,0] eta[3,1,1]
End
