\ Model D-SU-[[1, 0], [0, 1]]
\ LP format - for model browsing. Use MPS format to capture full model detail.
\ Signature: 0x53c031f6972ba6d5
Maximize
  phi[0,0] + phi[0,1] + phi[1,0] + phi[1,1]
Subject To
 LB[0,0]: c[1,0] - 6.814958219253154 delt[0,0] >= 1.73606797753111
 LB[0,1]: c[1,1] + delt[0,1] >= 1
 LB[1,0]: c[0,0] >= 8.551026196784264
 LB[1,1]: c[0,1] - delt[1,1] >= 0
 UB[0,0]: c[0,0] + delt[0,0] <= 9.551026196784264
 UB[0,1]: c[0,1] - 9 delt[0,1] <= 1
 UB[1,0]: c[1,0] + 5.814958219253154 delt[1,0] <= 8.551026196784264
 UB[1,1]: c[1,1] + 9 delt[1,1] <= 10
 PM[0,0]: c[0,0] - c[1,0] + 7.814958219253154 delt[0,0]
   <= 7.814958219253154
 PM[0,1]: c[0,1] - c[1,1] <= 0
 PM[1,0]: - c[0,0] + c[1,0] + 6.814958219253154 delt[1,0] <= 0
 PM[1,1]: - c[0,1] + c[1,1] + 10 delt[1,1] <= 10
 DB[0,0]: delt[0,0] >= 0
 DB[0,1]: delt[0,1] >= 0
 DB[1,0]: delt[1,0] >= 0
 DB[1,1]: delt[1,1] >= 0
 S1: delt[0,0] + delt[0,1] + delt[1,0] + delt[1,1] = 1
 LBt[0,0]: c[1,0] - 6.814958219253154 delt[0,0] + 100 eta[0,0,0]
   <= 101.7360679775311
 LBt[0,1]: c[1,1] + delt[0,1] + 100 eta[0,0,1] <= 101
 LBt[1,0]: c[0,0] + 100 eta[0,1,0] <= 108.5510261967843
 LBt[1,1]: c[0,1] - delt[1,1] + 100 eta[0,1,1] <= 100
 UBt[0,0]: c[0,0] + delt[0,0] - 100 eta[1,0,0] >= -90.44897380321574
 UBt[0,1]: c[0,1] - 9 delt[0,1] - 100 eta[1,0,1] >= -99
 UBt[1,0]: c[1,0] + 5.814958219253154 delt[1,0] - 100 eta[1,1,0]
   >= -91.44897380321574
 UBt[1,1]: c[1,1] + 9 delt[1,1] - 100 eta[1,1,1] >= -90
 PMt[0,0]: c[0,0] - c[1,0] + 7.814958219253154 delt[0,0] - 100 eta[2,0,0]
   >= -92.18504178074684
 PMt[0,1]: c[0,1] - c[1,1] - 100 eta[2,0,1] >= -100
 PMt[1,0]: - c[0,0] + c[1,0] + 6.814958219253154 delt[1,0] - 100 eta[2,1,0]
   >= -100
 PMt[1,1]: - c[0,1] + c[1,1] + 10 delt[1,1] - 100 eta[2,1,1] >= -90
 DBt[0,0]: delt[0,0] + eta[3,0,0] <= 1
 DBt[0,1]: delt[0,1] + eta[3,0,1] <= 1
 DBt[1,0]: delt[1,0] + eta[3,1,0] <= 1
 DBt[1,1]: delt[1,1] + eta[3,1,1] <= 1
 Tite: eta[0,0,0] + eta[0,0,1] + eta[0,1,0] + eta[0,1,1] + eta[1,0,0]
   + eta[1,0,1] + eta[1,1,0] + eta[1,1,1] + eta[2,0,0] + eta[2,0,1]
   + eta[2,1,0] + eta[2,1,1] + eta[3,0,0] + eta[3,0,1] + eta[3,1,0]
   + eta[3,1,1] = 7
 Covr1[0,0]: eta[0,0,0] + eta[1,0,0] + eta[2,0,0] + eta[3,0,0] <= 3
 Covr1[0,1]: eta[0,0,1] + eta[1,0,1] + eta[2,0,1] + eta[3,0,1] <= 3
 Covr1[1,0]: eta[0,1,0] + eta[1,1,0] + eta[2,1,0] + eta[3,1,0] <= 3
 Covr1[1,1]: eta[0,1,1] + eta[1,1,1] + eta[2,1,1] + eta[3,1,1] <= 3
 Covr2.a[0,0]: eta[0,0,0] + eta[1,0,0] + eta[2,0,0] <= 2
 Covr2.a[1,1]: eta[0,1,1] + eta[1,1,1] + eta[2,1,1] <= 2
 Covr2.b[0,0]: eta[0,0,0] + eta[0,1,0] + eta[2,1,0] + eta[3,0,1]
   + eta[3,1,1] <= 4
 Covr2.b[1,1]: eta[0,0,1] + eta[0,1,1] + eta[2,0,1] + eta[3,0,0]
   + eta[3,1,0] <= 4
 Covr2.c[0,0]: eta[0,0,0] + eta[0,0,1] + eta[0,1,0] + eta[1,0,1]
   + eta[2,0,1] + eta[2,1,0] + eta[3,1,1] <= 6
 Covr2.c[1,1]: eta[0,0,1] + eta[0,1,0] + eta[0,1,1] + eta[1,1,0]
   + eta[2,0,1] + eta[2,1,0] + eta[3,0,0] <= 6
 Covr2.d[0,0]: eta[0,0,0] + eta[0,1,0] + eta[0,1,1] + eta[1,1,1]
   + eta[2,1,0] + eta[2,1,1] + eta[3,0,1] <= 6
 Covr2.d[1,1]: eta[0,0,0] + eta[0,0,1] + eta[0,1,1] + eta[1,0,0]
   + eta[2,0,0] + eta[2,0,1] + eta[3,1,0] <= 6
 Covr2.e[0,0]: eta[1,0,0] + eta[1,1,0] + eta[2,1,0] + eta[3,0,1]
   + eta[3,1,1] <= 4
 Covr2.e[1,1]: eta[1,0,1] + eta[1,1,1] + eta[2,0,1] + eta[3,0,0]
   + eta[3,1,0] <= 4
 Covr2.f[0,0]: eta[0,0,1] + eta[1,0,0] + eta[1,0,1] + eta[1,1,0]
   + eta[2,0,1] + eta[2,1,0] + eta[3,1,1] <= 6
 Covr2.f[1,1]: eta[0,1,0] + eta[1,0,1] + eta[1,1,0] + eta[1,1,1]
   + eta[2,0,1] + eta[2,1,0] + eta[3,0,0] <= 6
 Covr2.g[0,0]: eta[0,1,1] + eta[1,0,0] + eta[1,1,0] + eta[1,1,1]
   + eta[2,1,0] + eta[2,1,1] + eta[3,0,1] <= 6
 Covr2.g[1,1]: eta[0,0,0] + eta[1,0,0] + eta[1,0,1] + eta[1,1,1]
   + eta[2,0,0] + eta[2,0,1] + eta[3,1,0] <= 6
 Obj1[0,0]: - 2 delt[0,0] + phi[0,0] <= 0
 Obj1[0,1]: - 2 delt[0,1] + phi[0,1] <= 0
 Obj1[1,0]: - 2 delt[1,0] + phi[1,0] <= 0
 Obj1[1,1]: - 2 delt[1,1] + phi[1,1] <= 0
 Obj2[0,0]: 2 delt[0,0] + phi[0,0] <= 2
 Obj2[0,1]: 2 delt[0,1] + phi[0,1] <= 2
 Obj2[1,0]: 2 delt[1,0] + phi[1,0] <= 2
 Obj2[1,1]: 2 delt[1,1] + phi[1,1] <= 2
Bounds
Binaries
 eta[0,0,0] eta[0,0,1] eta[0,1,0] eta[0,1,1] eta[1,0,0] eta[1,0,1]
 eta[1,1,0] eta[1,1,1] eta[2,0,0] eta[2,0,1] eta[2,1,0] eta[2,1,1]
 eta[3,0,0] eta[3,0,1] eta[3,1,0] eta[3,1,1]
End
