\ Model D-SU-((1, 0), (1, 0))
\ LP format - for model browsing. Use MPS format to capture full model detail.
\ Signature: 0xb57e812e59d1a25c
Maximize
  phi[0,0] + phi[0,1] + phi[1,0] + phi[1,1]
Subject To
 LB[0,0]: c[1,0] - 4.138229515159691 delt[0,0] >= 2.084210327675198
 LB[0,1]: c[1,1] - 6.342736145994276 delt[0,1] >= 0
 LB[1,0]: c[0,0] + 1.149223707161275 delt[1,0] >= 3.233434034836473
 LB[1,1]: c[0,1] + 3.413775789817807 delt[1,1] >= 3.413775789817807
 UB[0,0]: c[0,0] + 3.843971291786945 delt[0,0] <= 7.077405326623418
 UB[0,1]: c[0,1] + 6.586224210182239 delt[0,1] <= 10
 UB[1,0]: c[1,0] - 0.8549654837885292 delt[1,0] <= 6.222439842834889
 UB[1,1]: c[1,1] - 3.65726385400577 delt[1,1] <= 6.34273614599423
 PM[0,0]: c[0,0] - c[1,0] + 7.982200806946636 delt[0,0]
   <= 4.99319499894822
 PM[0,1]: c[0,1] - c[1,1] + 12.92896035617647 delt[0,1] <= 10
 PM[1,0]: - c[0,0] + c[1,0] + 2.989005807998416 delt[1,0]
   <= 2.989005807998416
 PM[1,1]: - c[0,1] + c[1,1] + 2.928960356176422 delt[1,1]
   <= 2.928960356176422
 DB[0,0]: delt[0,0] >= 0
 DB[0,1]: delt[0,1] >= 0
 DB[1,0]: delt[1,0] >= 0
 DB[1,1]: delt[1,1] >= 0
 S1: delt[0,0] + delt[0,1] + delt[1,0] + delt[1,1] = 1
 LBt[0,0]: c[1,0] - 4.138229515159691 delt[0,0] + 100 eta[0,0,0]
   <= 102.0842103276752
 LBt[0,1]: c[1,1] - 6.342736145994276 delt[0,1] + 100 eta[0,0,1] <= 100
 LBt[1,0]: c[0,0] + 1.149223707161275 delt[1,0] + 100 eta[0,1,0]
   <= 103.2334340348365
 LBt[1,1]: c[0,1] + 3.413775789817807 delt[1,1] + 100 eta[0,1,1]
   <= 103.4137757898178
 UBt[0,0]: c[0,0] + 3.843971291786945 delt[0,0] - 100 eta[1,0,0]
   >= -92.92259467337658
 UBt[0,1]: c[0,1] + 6.586224210182239 delt[0,1] - 100 eta[1,0,1] >= -90
 UBt[1,0]: c[1,0] - 0.8549654837885292 delt[1,0] - 100 eta[1,1,0]
   >= -93.77756015716511
 UBt[1,1]: c[1,1] - 3.65726385400577 delt[1,1] - 100 eta[1,1,1]
   >= -93.65726385400578
 PMt[0,0]: c[0,0] - c[1,0] + 7.982200806946636 delt[0,0] - 100 eta[2,0,0]
   >= -95.00680500105177
 PMt[0,1]: c[0,1] - c[1,1] + 12.92896035617647 delt[0,1] - 100 eta[2,0,1]
   >= -90
 PMt[1,0]: - c[0,0] + c[1,0] + 2.989005807998416 delt[1,0] - 100 eta[2,1,0]
   >= -97.01099419200159
 PMt[1,1]: - c[0,1] + c[1,1] + 2.928960356176422 delt[1,1] - 100 eta[2,1,1]
   >= -97.07103964382358
 DBt[0,0]: delt[0,0] + eta[3,0,0] <= 1
 DBt[0,1]: delt[0,1] + eta[3,0,1] <= 1
 DBt[1,0]: delt[1,0] + eta[3,1,0] <= 1
 DBt[1,1]: delt[1,1] + eta[3,1,1] <= 1
 Tite: eta[0,0,0] + eta[0,0,1] + eta[0,1,0] + eta[0,1,1] + eta[1,0,0]
   + eta[1,0,1] + eta[1,1,0] + eta[1,1,1] + eta[2,0,0] + eta[2,0,1]
   + eta[2,1,0] + eta[2,1,1] + eta[3,0,0] + eta[3,0,1] + eta[3,1,0]
   + eta[3,1,1] = 7
 Covr1.1[0,0]: eta[0,0,0] + eta[1,0,0] + eta[2,0,0] + eta[3,0,0] <= 3
 Covr1.1[0,1]: eta[0,0,1] + eta[1,0,1] + eta[2,0,1] + eta[3,0,1] <= 3
 Covr1.1[1,0]: eta[0,1,0] + eta[1,1,0] + eta[2,1,0] + eta[3,1,0] <= 3
 Covr1.1[1,1]: eta[0,1,1] + eta[1,1,1] + eta[2,1,1] + eta[3,1,1] <= 3
 Covr1.2.A[0,0]: eta[0,0,0] + eta[1,0,0] + eta[2,0,0] <= 2
 Covr1.2.A[0,1]: eta[0,0,1] + eta[1,0,1] + eta[2,0,1] <= 2
 Covr1.2.B.i[0,0]: eta[0,0,0] + eta[0,1,0] + eta[2,1,0] + eta[3,0,1]
   + eta[3,1,1] <= 4
 Covr1.2.B.i[0,1]: eta[0,0,1] + eta[0,1,1] + eta[2,1,1] + eta[3,0,0]
   + eta[3,1,0] <= 4
 Covr1.2.B.ii[0,0]: eta[0,0,0] + eta[0,0,1] + eta[0,1,0] + eta[1,0,1]
   + eta[2,0,1] + eta[2,1,0] + eta[3,1,1] <= 6
 Covr1.2.B.ii[0,1]: eta[0,0,0] + eta[0,0,1] + eta[0,1,1] + eta[1,0,0]
   + eta[2,0,0] + eta[2,1,1] + eta[3,1,0] <= 6
 Covr1.2.B.iii[0,0]: eta[0,0,0] + eta[0,1,0] + eta[0,1,1] + eta[1,1,1]
   + eta[2,1,0] + eta[2,1,1] + eta[3,0,1] <= 6
 Covr1.2.B.iii[0,1]: eta[0,0,1] + eta[0,1,0] + eta[0,1,1] + eta[1,1,0]
   + eta[2,1,0] + eta[2,1,1] + eta[3,0,0] <= 6
 Covr1.2.C.i[0,0]: eta[1,0,0] + eta[1,1,0] + eta[2,1,0] + eta[3,0,1]
   + eta[3,1,1] <= 4
 Covr1.2.C.i[0,1]: eta[1,0,1] + eta[1,1,1] + eta[2,1,1] + eta[3,0,0]
   + eta[3,1,0] <= 4
 Covr1.2.C.ii[0,0]: eta[0,0,1] + eta[1,0,0] + eta[1,0,1] + eta[1,1,0]
   + eta[2,0,1] + eta[2,1,0] + eta[3,1,1] <= 6
 Covr1.2.C.ii[0,1]: eta[0,0,0] + eta[1,0,0] + eta[1,0,1] + eta[1,1,1]
   + eta[2,0,0] + eta[2,1,1] + eta[3,1,0] <= 6
 Covr1.2.C.iii[0,0]: eta[0,1,1] + eta[1,0,0] + eta[1,1,0] + eta[1,1,1]
   + eta[2,1,0] + eta[2,1,1] + eta[3,0,1] <= 6
 Covr1.2.C.iii[0,1]: eta[0,1,0] + eta[1,0,1] + eta[1,1,0] + eta[1,1,1]
   + eta[2,1,0] + eta[2,1,1] + eta[3,0,0] <= 6
 Obj1[0,0]: - 2 delt[0,0] + phi[0,0] <= 0
 Obj1[0,1]: - 2 delt[0,1] + phi[0,1] <= 0
 Obj1[1,0]: - 2 delt[1,0] + phi[1,0] <= 0
 Obj1[1,1]: - 2 delt[1,1] + phi[1,1] <= 0
 Obj2[0,0]: 2 delt[0,0] + phi[0,0] <= 2
 Obj2[0,1]: 2 delt[0,1] + phi[0,1] <= 2
 Obj2[1,0]: 2 delt[1,0] + phi[1,0] <= 2
 Obj2[1,1]: 2 delt[1,1] + phi[1,1] <= 2
Bounds
Binaries
 eta[0,0,0] eta[0,0,1] eta[0,1,0] eta[0,1,1] eta[1,0,0] eta[1,0,1]
 eta[1,1,0] eta[1,1,1] eta[2,0,0] eta[2,0,1] eta[2,1,0] eta[2,1,1]
 eta[3,0,0] eta[3,0,1] eta[3,1,0] eta[3,1,1]
End
