\ Model NU-111-StripPacking-25-3
\ LP format - for model browsing. Use MPS format to capture full model detail.
\ Signature: 0xc70749295ad986a3
Minimize
  h
Subject To
 Height[B0]: - c[B0,1] + h >= 9.5
 Height[B1]: - c[B1,1] + h >= 6
 Height[B2]: - c[B2,1] + h >= 7
 Height[B3]: - c[B3,1] + h >= 5.5
 Height[B4]: - c[B4,1] + h >= 4.5
 Height[B5]: - c[B5,1] + h >= 8.5
 Height[B6]: - c[B6,1] + h >= 8.5
 Height[B7]: - c[B7,1] + h >= 21
 Height[B8]: - c[B8,1] + h >= 6.5
 Height[B9]: - c[B9,1] + h >= 9.5
 Height[B10]: - c[B10,1] + h >= 4
 Height[B11]: - c[B11,1] + h >= 5
 Height[B12]: - c[B12,1] + h >= 9.5
 Height[B13]: - c[B13,1] + h >= 7
 Height[B14]: - c[B14,1] + h >= 7
 Height[B15]: - c[B15,1] + h >= 4.5
 Height[B16]: - c[B16,1] + h >= 16.5
 Height[B17]: - c[B17,1] + h >= 5.5
 Height[B18]: - c[B18,1] + h >= 5.5
 Height[B19]: - c[B19,1] + h >= 5.5
 Height[B20]: - c[B20,1] + h >= 5.5
 Height[B21]: - c[B21,1] + h >= 5.5
 Height[B22]: - c[B22,1] + h >= 13.5
 Height[B23]: - c[B23,1] + h >= 7.5
 Height[B24]: - c[B24,1] + h >= 17.5
 PM[B0,B1,0]: c[B0,0] - c[B1,0] + 98 delta[B0,B1,0] <= 81
 PM[B0,B1,1]: c[B0,1] - c[B1,1] + 10000 delta[B0,B1,1] <= 9984.5
 PM[B0,B2,0]: c[B0,0] - c[B2,0] + 100 delta[B0,B2,0] <= 82.5
 PM[B0,B2,1]: c[B0,1] - c[B2,1] + 9996 delta[B0,B2,1] <= 9981.5
 PM[B0,B3,0]: c[B0,0] - c[B3,0] + 100 delta[B0,B3,0] <= 83
 PM[B0,B3,1]: c[B0,1] - c[B3,1] + 9995 delta[B0,B3,1] <= 9978
 PM[B0,B4,0]: c[B0,0] - c[B4,0] + 98 delta[B0,B4,0] <= 78
 PM[B0,B4,1]: c[B0,1] - c[B4,1] + 10000 delta[B0,B4,1] <= 9986
 PM[B0,B5,0]: c[B0,0] - c[B5,0] + 95 delta[B0,B5,0] <= 77
 PM[B0,B5,1]: c[B0,1] - c[B5,1] + 10000 delta[B0,B5,1] <= 9986
 PM[B0,B6,0]: c[B0,0] - c[B6,0] + 97 delta[B0,B6,0] <= 78
 PM[B0,B6,1]: c[B0,1] - c[B6,1] + 10000 delta[B0,B6,1] <= 9987
 PM[B0,B7,0]: c[B0,0] - c[B7,0] + 95 delta[B0,B7,0] <= 59
 PM[B0,B7,1]: c[B0,1] - c[B7,1] + 9995 delta[B0,B7,1] <= 9975.5
 PM[B0,B8,0]: c[B0,0] - c[B8,0] + 96 delta[B0,B8,0] <= 76.5
 PM[B0,B8,1]: c[B0,1] - c[B8,1] + 9995 delta[B0,B8,1] <= 9974
 PM[B0,B9,0]: c[B0,0] - c[B9,0] + 95 delta[B0,B9,0] <= 70.5
 PM[B0,B9,1]: c[B0,1] - c[B9,1] + 10000 delta[B0,B9,1] <= 9982
 PM[B0,B10,0]: c[B0,0] - c[B10,0] + 100 delta[B0,B10,0] <= 83.5
 PM[B0,B10,1]: c[B0,1] - c[B10,1] + 9999 delta[B0,B10,1] <= 9985.5
 PM[B0,B11,0]: c[B0,0] - c[B11,0] + 100 delta[B0,B11,0] <= 83
 PM[B0,B11,1]: c[B0,1] - c[B11,1] + 10000 delta[B0,B11,1] <= 9985.5
 PM[B0,B12,0]: c[B0,0] - c[B12,0] + 95 delta[B0,B12,0] <= 64
 PM[B0,B12,1]: c[B0,1] - c[B12,1] + 9995 delta[B0,B12,1] <= 9973
 PM[B0,B13,0]: c[B0,0] - c[B13,0] + 95 delta[B0,B13,0] <= 77
 PM[B0,B13,1]: c[B0,1] - c[B13,1] + 9998 delta[B0,B13,1] <= 9982.5
 PM[B0,B14,0]: c[B0,0] - c[B14,0] + 95 delta[B0,B14,0] <= 71.5
 PM[B0,B14,1]: c[B0,1] - c[B14,1] + 10000 delta[B0,B14,1] <= 9983.5
 PM[B0,B15,0]: c[B0,0] - c[B15,0] + 100 delta[B0,B15,0] <= 77.5
 PM[B0,B15,1]: c[B0,1] - c[B15,1] + 9996 delta[B0,B15,1] <= 9982
 PM[B0,B16,0]: c[B0,0] - c[B16,0] + 100 delta[B0,B16,0] <= 82
 PM[B0,B16,1]: c[B0,1] - c[B16,1] + 9995 delta[B0,B16,1] <= 9975
 PM[B0,B17,0]: c[B0,0] - c[B17,0] + 100 delta[B0,B17,0] <= 81
 PM[B0,B17,1]: c[B0,1] - c[B17,1] + 10000 delta[B0,B17,1] <= 9985
 PM[B0,B18,0]: c[B0,0] - c[B18,0] + 100 delta[B0,B18,0] <= 80.5
 PM[B0,B18,1]: c[B0,1] - c[B18,1] + 9998 delta[B0,B18,1] <= 9983
 PM[B0,B19,0]: c[B0,0] - c[B19,0] + 95 delta[B0,B19,0] <= 73
 PM[B0,B19,1]: c[B0,1] - c[B19,1] + 9999 delta[B0,B19,1] <= 9984
 PM[B0,B20,0]: c[B0,0] - c[B20,0] + 100 delta[B0,B20,0] <= 81
 PM[B0,B20,1]: c[B0,1] - c[B20,1] + 10000 delta[B0,B20,1] <= 9986
 PM[B0,B21,0]: c[B0,0] - c[B21,0] + 100 delta[B0,B21,0] <= 84
 PM[B0,B21,1]: c[B0,1] - c[B21,1] + 9995 delta[B0,B21,1] <= 9980
 PM[B0,B22,0]: c[B0,0] - c[B22,0] + 100 delta[B0,B22,0] <= 82
 PM[B0,B22,1]: c[B0,1] - c[B22,1] + 9995 delta[B0,B22,1] <= 9978
 PM[B0,B23,0]: c[B0,0] - c[B23,0] + 95 delta[B0,B23,0] <= 77
 PM[B0,B23,1]: c[B0,1] - c[B23,1] + 10000 delta[B0,B23,1] <= 9988
 PM[B0,B24,0]: c[B0,0] - c[B24,0] + 100 delta[B0,B24,0] <= 84.5
 PM[B0,B24,1]: c[B0,1] - c[B24,1] + 10000 delta[B0,B24,1] <= 9983
 PM[B1,B0,0]: - c[B0,0] + c[B1,0] + 97 delta[B1,B0,0] <= 71
 PM[B1,B0,1]: - c[B0,1] + c[B1,1] + 10000 delta[B1,B0,1] <= 9989.5
 PM[B1,B2,0]: c[B1,0] - c[B2,0] + 100 delta[B1,B2,0] <= 88.5
 PM[B1,B2,1]: c[B1,1] - c[B2,1] + 10000 delta[B1,B2,1] <= 9985
 PM[B1,B3,0]: c[B1,0] - c[B3,0] + 100 delta[B1,B3,0] <= 89
 PM[B1,B3,1]: c[B1,1] - c[B3,1] + 10000 delta[B1,B3,1] <= 9981.5
 PM[B1,B4,0]: c[B1,0] - c[B4,0] + 98 delta[B1,B4,0] <= 84
 PM[B1,B4,1]: c[B1,1] - c[B4,1] + 10000 delta[B1,B4,1] <= 9989.5
 PM[B1,B5,0]: c[B1,0] - c[B5,0] + 97 delta[B1,B5,0] <= 83
 PM[B1,B5,1]: c[B1,1] - c[B5,1] + 10000 delta[B1,B5,1] <= 9989.5
 PM[B1,B6,0]: c[B1,0] - c[B6,0] + 97 delta[B1,B6,0] <= 84
 PM[B1,B6,1]: c[B1,1] - c[B6,1] + 10000 delta[B1,B6,1] <= 9990.5
 PM[B1,B7,0]: c[B1,0] - c[B7,0] + 97 delta[B1,B7,0] <= 65
 PM[B1,B7,1]: c[B1,1] - c[B7,1] + 10000 delta[B1,B7,1] <= 9979
 PM[B1,B8,0]: c[B1,0] - c[B8,0] + 97 delta[B1,B8,0] <= 82.5
 PM[B1,B8,1]: c[B1,1] - c[B8,1] + 10000 delta[B1,B8,1] <= 9977.5
 PM[B1,B9,0]: c[B1,0] - c[B9,0] + 97 delta[B1,B9,0] <= 76.5
 PM[B1,B9,1]: c[B1,1] - c[B9,1] + 10000 delta[B1,B9,1] <= 9985.5
 PM[B1,B10,0]: c[B1,0] - c[B10,0] + 100 delta[B1,B10,0] <= 89.5
 PM[B1,B10,1]: c[B1,1] - c[B10,1] + 10000 delta[B1,B10,1] <= 9989
 PM[B1,B11,0]: c[B1,0] - c[B11,0] + 100 delta[B1,B11,0] <= 89
 PM[B1,B11,1]: c[B1,1] - c[B11,1] + 10000 delta[B1,B11,1] <= 9989
 PM[B1,B12,0]: c[B1,0] - c[B12,0] + 97 delta[B1,B12,0] <= 70
 PM[B1,B12,1]: c[B1,1] - c[B12,1] + 10000 delta[B1,B12,1] <= 9976.5
 PM[B1,B13,0]: c[B1,0] - c[B13,0] + 97 delta[B1,B13,0] <= 83
 PM[B1,B13,1]: c[B1,1] - c[B13,1] + 10000 delta[B1,B13,1] <= 9986
 PM[B1,B14,0]: c[B1,0] - c[B14,0] + 97 delta[B1,B14,0] <= 77.5
 PM[B1,B14,1]: c[B1,1] - c[B14,1] + 10000 delta[B1,B14,1] <= 9987
 PM[B1,B15,0]: c[B1,0] - c[B15,0] + 100 delta[B1,B15,0] <= 83.5
 PM[B1,B15,1]: c[B1,1] - c[B15,1] + 10000 delta[B1,B15,1] <= 9985.5
 PM[B1,B16,0]: c[B1,0] - c[B16,0] + 100 delta[B1,B16,0] <= 88
 PM[B1,B16,1]: c[B1,1] - c[B16,1] + 10000 delta[B1,B16,1] <= 9978.5
 PM[B1,B17,0]: c[B1,0] - c[B17,0] + 100 delta[B1,B17,0] <= 87
 PM[B1,B17,1]: c[B1,1] - c[B17,1] + 10000 delta[B1,B17,1] <= 9988.5
 PM[B1,B18,0]: c[B1,0] - c[B18,0] + 100 delta[B1,B18,0] <= 86.5
 PM[B1,B18,1]: c[B1,1] - c[B18,1] + 10000 delta[B1,B18,1] <= 9986.5
 PM[B1,B19,0]: c[B1,0] - c[B19,0] + 97 delta[B1,B19,0] <= 79
 PM[B1,B19,1]: c[B1,1] - c[B19,1] + 10000 delta[B1,B19,1] <= 9987.5
 PM[B1,B20,0]: c[B1,0] - c[B20,0] + 100 delta[B1,B20,0] <= 87
 PM[B1,B20,1]: c[B1,1] - c[B20,1] + 10000 delta[B1,B20,1] <= 9989.5
 PM[B1,B21,0]: c[B1,0] - c[B21,0] + 100 delta[B1,B21,0] <= 90
 PM[B1,B21,1]: c[B1,1] - c[B21,1] + 10000 delta[B1,B21,1] <= 9983.5
 PM[B1,B22,0]: c[B1,0] - c[B22,0] + 100 delta[B1,B22,0] <= 88
 PM[B1,B22,1]: c[B1,1] - c[B22,1] + 10000 delta[B1,B22,1] <= 9981.5
 PM[B1,B23,0]: c[B1,0] - c[B23,0] + 97 delta[B1,B23,0] <= 83
 PM[B1,B23,1]: c[B1,1] - c[B23,1] + 10000 delta[B1,B23,1] <= 9991.5
 PM[B1,B24,0]: c[B1,0] - c[B24,0] + 100 delta[B1,B24,0] <= 90.5
 PM[B1,B24,1]: c[B1,1] - c[B24,1] + 10000 delta[B1,B24,1] <= 9986.5
 PM[B2,B0,0]: - c[B0,0] + c[B2,0] + 100 delta[B2,B0,0] <= 73.5
 PM[B2,B0,1]: - c[B0,1] + c[B2,1] + 10000 delta[B2,B0,1] <= 9988.5
 PM[B2,B1,0]: - c[B1,0] + c[B2,0] + 100 delta[B2,B1,0] <= 89.5
 PM[B2,B1,1]: - c[B1,1] + c[B2,1] + 10000 delta[B2,B1,1] <= 9987
 PM[B2,B3,0]: c[B2,0] - c[B3,0] + 100 delta[B2,B3,0] <= 91.5
 PM[B2,B3,1]: c[B2,1] - c[B3,1] + 9998 delta[B2,B3,1] <= 9980.5
 PM[B2,B4,0]: c[B2,0] - c[B4,0] + 100 delta[B2,B4,0] <= 86.5
 PM[B2,B4,1]: c[B2,1] - c[B4,1] + 10000 delta[B2,B4,1] <= 9988.5
 PM[B2,B5,0]: c[B2,0] - c[B5,0] + 100 delta[B2,B5,0] <= 85.5
 PM[B2,B5,1]: c[B2,1] - c[B5,1] + 10000 delta[B2,B5,1] <= 9988.5
 PM[B2,B6,0]: c[B2,0] - c[B6,0] + 100 delta[B2,B6,0] <= 86.5
 PM[B2,B6,1]: c[B2,1] - c[B6,1] + 10000 delta[B2,B6,1] <= 9989.5
 PM[B2,B7,0]: c[B2,0] - c[B7,0] + 100 delta[B2,B7,0] <= 67.5
 PM[B2,B7,1]: c[B2,1] - c[B7,1] + 9998 delta[B2,B7,1] <= 9978
 PM[B2,B8,0]: c[B2,0] - c[B8,0] + 100 delta[B2,B8,0] <= 85
 PM[B2,B8,1]: c[B2,1] - c[B8,1] + 9998 delta[B2,B8,1] <= 9976.5
 PM[B2,B9,0]: c[B2,0] - c[B9,0] + 100 delta[B2,B9,0] <= 79
 PM[B2,B9,1]: c[B2,1] - c[B9,1] + 10000 delta[B2,B9,1] <= 9984.5
 PM[B2,B10,0]: c[B2,0] - c[B10,0] + 100 delta[B2,B10,0] <= 92
 PM[B2,B10,1]: c[B2,1] - c[B10,1] + 9999 delta[B2,B10,1] <= 9988
 PM[B2,B11,0]: c[B2,0] - c[B11,0] + 100 delta[B2,B11,0] <= 91.5
 PM[B2,B11,1]: c[B2,1] - c[B11,1] + 10000 delta[B2,B11,1] <= 9988
 PM[B2,B12,0]: c[B2,0] - c[B12,0] + 100 delta[B2,B12,0] <= 72.5
 PM[B2,B12,1]: c[B2,1] - c[B12,1] + 9998 delta[B2,B12,1] <= 9975.5
 PM[B2,B13,0]: c[B2,0] - c[B13,0] + 100 delta[B2,B13,0] <= 85.5
 PM[B2,B13,1]: c[B2,1] - c[B13,1] + 9998 delta[B2,B13,1] <= 9985
 PM[B2,B14,0]: c[B2,0] - c[B14,0] + 100 delta[B2,B14,0] <= 80
 PM[B2,B14,1]: c[B2,1] - c[B14,1] + 10000 delta[B2,B14,1] <= 9986
 PM[B2,B15,0]: c[B2,0] - c[B15,0] + 100 delta[B2,B15,0] <= 86
 PM[B2,B15,1]: c[B2,1] - c[B15,1] + 9998 delta[B2,B15,1] <= 9984.5
 PM[B2,B16,0]: c[B2,0] - c[B16,0] + 100 delta[B2,B16,0] <= 90.5
 PM[B2,B16,1]: c[B2,1] - c[B16,1] + 9998 delta[B2,B16,1] <= 9977.5
 PM[B2,B17,0]: c[B2,0] - c[B17,0] + 100 delta[B2,B17,0] <= 89.5
 PM[B2,B17,1]: c[B2,1] - c[B17,1] + 10000 delta[B2,B17,1] <= 9987.5
 PM[B2,B18,0]: c[B2,0] - c[B18,0] + 100 delta[B2,B18,0] <= 89
 PM[B2,B18,1]: c[B2,1] - c[B18,1] + 9998 delta[B2,B18,1] <= 9985.5
 PM[B2,B19,0]: c[B2,0] - c[B19,0] + 100 delta[B2,B19,0] <= 81.5
 PM[B2,B19,1]: c[B2,1] - c[B19,1] + 9999 delta[B2,B19,1] <= 9986.5
 PM[B2,B20,0]: c[B2,0] - c[B20,0] + 100 delta[B2,B20,0] <= 89.5
 PM[B2,B20,1]: c[B2,1] - c[B20,1] + 10000 delta[B2,B20,1] <= 9988.5
 PM[B2,B21,0]: c[B2,0] - c[B21,0] + 100 delta[B2,B21,0] <= 92.5
 PM[B2,B21,1]: c[B2,1] - c[B21,1] + 9998 delta[B2,B21,1] <= 9982.5
 PM[B2,B22,0]: c[B2,0] - c[B22,0] + 100 delta[B2,B22,0] <= 90.5
 PM[B2,B22,1]: c[B2,1] - c[B22,1] + 9998 delta[B2,B22,1] <= 9980.5
 PM[B2,B23,0]: c[B2,0] - c[B23,0] + 100 delta[B2,B23,0] <= 85.5
 PM[B2,B23,1]: c[B2,1] - c[B23,1] + 10000 delta[B2,B23,1] <= 9990.5
 PM[B2,B24,0]: c[B2,0] - c[B24,0] + 100 delta[B2,B24,0] <= 93
 PM[B2,B24,1]: c[B2,1] - c[B24,1] + 10000 delta[B2,B24,1] <= 9985.5
 PM[B3,B0,0]: - c[B0,0] + c[B3,0] + 99 delta[B3,B0,0] <= 73
 PM[B3,B0,1]: - c[B0,1] + c[B3,1] + 10000 delta[B3,B0,1] <= 9990
 PM[B3,B1,0]: - c[B1,0] + c[B3,0] + 99 delta[B3,B1,0] <= 89
 PM[B3,B1,1]: - c[B1,1] + c[B3,1] + 10000 delta[B3,B1,1] <= 9988.5
 PM[B3,B2,0]: - c[B2,0] + c[B3,0] + 100 delta[B3,B2,0] <= 90.5
 PM[B3,B2,1]: - c[B2,1] + c[B3,1] + 10000 delta[B3,B2,1] <= 9985.5
 PM[B3,B4,0]: c[B3,0] - c[B4,0] + 99 delta[B3,B4,0] <= 86
 PM[B3,B4,1]: c[B3,1] - c[B4,1] + 10000 delta[B3,B4,1] <= 9990
 PM[B3,B5,0]: c[B3,0] - c[B5,0] + 99 delta[B3,B5,0] <= 85
 PM[B3,B5,1]: c[B3,1] - c[B5,1] + 10000 delta[B3,B5,1] <= 9990
 PM[B3,B6,0]: c[B3,0] - c[B6,0] + 99 delta[B3,B6,0] <= 86
 PM[B3,B6,1]: c[B3,1] - c[B6,1] + 10000 delta[B3,B6,1] <= 9991
 PM[B3,B7,0]: c[B3,0] - c[B7,0] + 99 delta[B3,B7,0] <= 67
 PM[B3,B7,1]: c[B3,1] - c[B7,1] + 10000 delta[B3,B7,1] <= 9979.5
 PM[B3,B8,0]: c[B3,0] - c[B8,0] + 99 delta[B3,B8,0] <= 84.5
 PM[B3,B8,1]: c[B3,1] - c[B8,1] + 10000 delta[B3,B8,1] <= 9978
 PM[B3,B9,0]: c[B3,0] - c[B9,0] + 99 delta[B3,B9,0] <= 78.5
 PM[B3,B9,1]: c[B3,1] - c[B9,1] + 10000 delta[B3,B9,1] <= 9986
 PM[B3,B10,0]: c[B3,0] - c[B10,0] + 100 delta[B3,B10,0] <= 91.5
 PM[B3,B10,1]: c[B3,1] - c[B10,1] + 10000 delta[B3,B10,1] <= 9989.5
 PM[B3,B11,0]: c[B3,0] - c[B11,0] + 100 delta[B3,B11,0] <= 91
 PM[B3,B11,1]: c[B3,1] - c[B11,1] + 10000 delta[B3,B11,1] <= 9989.5
 PM[B3,B12,0]: c[B3,0] - c[B12,0] + 99 delta[B3,B12,0] <= 72
 PM[B3,B12,1]: c[B3,1] - c[B12,1] + 10000 delta[B3,B12,1] <= 9977
 PM[B3,B13,0]: c[B3,0] - c[B13,0] + 99 delta[B3,B13,0] <= 85
 PM[B3,B13,1]: c[B3,1] - c[B13,1] + 10000 delta[B3,B13,1] <= 9986.5
 PM[B3,B14,0]: c[B3,0] - c[B14,0] + 99 delta[B3,B14,0] <= 79.5
 PM[B3,B14,1]: c[B3,1] - c[B14,1] + 10000 delta[B3,B14,1] <= 9987.5
 PM[B3,B15,0]: c[B3,0] - c[B15,0] + 100 delta[B3,B15,0] <= 85.5
 PM[B3,B15,1]: c[B3,1] - c[B15,1] + 10000 delta[B3,B15,1] <= 9986
 PM[B3,B16,0]: c[B3,0] - c[B16,0] + 100 delta[B3,B16,0] <= 90
 PM[B3,B16,1]: c[B3,1] - c[B16,1] + 10000 delta[B3,B16,1] <= 9979
 PM[B3,B17,0]: c[B3,0] - c[B17,0] + 100 delta[B3,B17,0] <= 89
 PM[B3,B17,1]: c[B3,1] - c[B17,1] + 10000 delta[B3,B17,1] <= 9989
 PM[B3,B18,0]: c[B3,0] - c[B18,0] + 100 delta[B3,B18,0] <= 88.5
 PM[B3,B18,1]: c[B3,1] - c[B18,1] + 10000 delta[B3,B18,1] <= 9987
 PM[B3,B19,0]: c[B3,0] - c[B19,0] + 99 delta[B3,B19,0] <= 81
 PM[B3,B19,1]: c[B3,1] - c[B19,1] + 10000 delta[B3,B19,1] <= 9988
 PM[B3,B20,0]: c[B3,0] - c[B20,0] + 100 delta[B3,B20,0] <= 89
 PM[B3,B20,1]: c[B3,1] - c[B20,1] + 10000 delta[B3,B20,1] <= 9990
 PM[B3,B21,0]: c[B3,0] - c[B21,0] + 100 delta[B3,B21,0] <= 92
 PM[B3,B21,1]: c[B3,1] - c[B21,1] + 10000 delta[B3,B21,1] <= 9984
 PM[B3,B22,0]: c[B3,0] - c[B22,0] + 100 delta[B3,B22,0] <= 90
 PM[B3,B22,1]: c[B3,1] - c[B22,1] + 10000 delta[B3,B22,1] <= 9982
 PM[B3,B23,0]: c[B3,0] - c[B23,0] + 99 delta[B3,B23,0] <= 85
 PM[B3,B23,1]: c[B3,1] - c[B23,1] + 10000 delta[B3,B23,1] <= 9992
 PM[B3,B24,0]: c[B3,0] - c[B24,0] + 100 delta[B3,B24,0] <= 92.5
 PM[B3,B24,1]: c[B3,1] - c[B24,1] + 10000 delta[B3,B24,1] <= 9987
 PM[B4,B0,0]: - c[B0,0] + c[B4,0] + 86 delta[B4,B0,0] <= 57
 PM[B4,B0,1]: - c[B0,1] + c[B4,1] + 10000 delta[B4,B0,1] <= 9991
 PM[B4,B1,0]: - c[B1,0] + c[B4,0] + 98 delta[B4,B1,0] <= 73
 PM[B4,B1,1]: - c[B1,1] + c[B4,1] + 10000 delta[B4,B1,1] <= 9989.5
 PM[B4,B2,0]: - c[B2,0] + c[B4,0] + 100 delta[B4,B2,0] <= 74.5
 PM[B4,B2,1]: - c[B2,1] + c[B4,1] + 10000 delta[B4,B2,1] <= 9986.5
 PM[B4,B3,0]: - c[B3,0] + c[B4,0] + 100 delta[B4,B3,0] <= 75
 PM[B4,B3,1]: - c[B3,1] + c[B4,1] + 10000 delta[B4,B3,1] <= 9983
 PM[B4,B5,0]: c[B4,0] - c[B5,0] + 94 delta[B4,B5,0] <= 69
 PM[B4,B5,1]: c[B4,1] - c[B5,1] + 10000 delta[B4,B5,1] <= 9991
 PM[B4,B6,0]: c[B4,0] - c[B6,0] + 97 delta[B4,B6,0] <= 70
 PM[B4,B6,1]: c[B4,1] - c[B6,1] + 10000 delta[B4,B6,1] <= 9992
 PM[B4,B7,0]: c[B4,0] - c[B7,0] + 86 delta[B4,B7,0] <= 51
 PM[B4,B7,1]: c[B4,1] - c[B7,1] + 10000 delta[B4,B7,1] <= 9980.5
 PM[B4,B8,0]: c[B4,0] - c[B8,0] + 96 delta[B4,B8,0] <= 68.5
 PM[B4,B8,1]: c[B4,1] - c[B8,1] + 10000 delta[B4,B8,1] <= 9979
 PM[B4,B9,0]: c[B4,0] - c[B9,0] + 89 delta[B4,B9,0] <= 62.5
 PM[B4,B9,1]: c[B4,1] - c[B9,1] + 10000 delta[B4,B9,1] <= 9987
 PM[B4,B10,0]: c[B4,0] - c[B10,0] + 100 delta[B4,B10,0] <= 75.5
 PM[B4,B10,1]: c[B4,1] - c[B10,1] + 10000 delta[B4,B10,1] <= 9990.5
 PM[B4,B11,0]: c[B4,0] - c[B11,0] + 100 delta[B4,B11,0] <= 75
 PM[B4,B11,1]: c[B4,1] - c[B11,1] + 10000 delta[B4,B11,1] <= 9990.5
 PM[B4,B12,0]: c[B4,0] - c[B12,0] + 86 delta[B4,B12,0] <= 56
 PM[B4,B12,1]: c[B4,1] - c[B12,1] + 10000 delta[B4,B12,1] <= 9978
 PM[B4,B13,0]: c[B4,0] - c[B13,0] + 94 delta[B4,B13,0] <= 69
 PM[B4,B13,1]: c[B4,1] - c[B13,1] + 10000 delta[B4,B13,1] <= 9987.5
 PM[B4,B14,0]: c[B4,0] - c[B14,0] + 93 delta[B4,B14,0] <= 63.5
 PM[B4,B14,1]: c[B4,1] - c[B14,1] + 10000 delta[B4,B14,1] <= 9988.5
 PM[B4,B15,0]: c[B4,0] - c[B15,0] + 100 delta[B4,B15,0] <= 69.5
 PM[B4,B15,1]: c[B4,1] - c[B15,1] + 10000 delta[B4,B15,1] <= 9987
 PM[B4,B16,0]: c[B4,0] - c[B16,0] + 100 delta[B4,B16,0] <= 74
 PM[B4,B16,1]: c[B4,1] - c[B16,1] + 10000 delta[B4,B16,1] <= 9980
 PM[B4,B17,0]: c[B4,0] - c[B17,0] + 100 delta[B4,B17,0] <= 73
 PM[B4,B17,1]: c[B4,1] - c[B17,1] + 10000 delta[B4,B17,1] <= 9990
 PM[B4,B18,0]: c[B4,0] - c[B18,0] + 100 delta[B4,B18,0] <= 72.5
 PM[B4,B18,1]: c[B4,1] - c[B18,1] + 10000 delta[B4,B18,1] <= 9988
 PM[B4,B19,0]: c[B4,0] - c[B19,0] + 94 delta[B4,B19,0] <= 65
 PM[B4,B19,1]: c[B4,1] - c[B19,1] + 10000 delta[B4,B19,1] <= 9989
 PM[B4,B20,0]: c[B4,0] - c[B20,0] + 100 delta[B4,B20,0] <= 73
 PM[B4,B20,1]: c[B4,1] - c[B20,1] + 10000 delta[B4,B20,1] <= 9991
 PM[B4,B21,0]: c[B4,0] - c[B21,0] + 100 delta[B4,B21,0] <= 76
 PM[B4,B21,1]: c[B4,1] - c[B21,1] + 10000 delta[B4,B21,1] <= 9985
 PM[B4,B22,0]: c[B4,0] - c[B22,0] + 100 delta[B4,B22,0] <= 74
 PM[B4,B22,1]: c[B4,1] - c[B22,1] + 10000 delta[B4,B22,1] <= 9983
 PM[B4,B23,0]: c[B4,0] - c[B23,0] + 94 delta[B4,B23,0] <= 69
 PM[B4,B23,1]: c[B4,1] - c[B23,1] + 10000 delta[B4,B23,1] <= 9993
 PM[B4,B24,0]: c[B4,0] - c[B24,0] + 100 delta[B4,B24,0] <= 76.5
 PM[B4,B24,1]: c[B4,1] - c[B24,1] + 10000 delta[B4,B24,1] <= 9988
 PM[B5,B0,0]: - c[B0,0] + c[B5,0] + 100 delta[B5,B0,0] <= 74
 PM[B5,B0,1]: - c[B0,1] + c[B5,1] + 10000 delta[B5,B0,1] <= 9987
 PM[B5,B1,0]: - c[B1,0] + c[B5,0] + 100 delta[B5,B1,0] <= 90
 PM[B5,B1,1]: - c[B1,1] + c[B5,1] + 10000 delta[B5,B1,1] <= 9985.5
 PM[B5,B2,0]: - c[B2,0] + c[B5,0] + 100 delta[B5,B2,0] <= 91.5
 PM[B5,B2,1]: - c[B2,1] + c[B5,1] + 9996 delta[B5,B2,1] <= 9982.5
 PM[B5,B3,0]: - c[B3,0] + c[B5,0] + 100 delta[B5,B3,0] <= 92
 PM[B5,B3,1]: - c[B3,1] + c[B5,1] + 9996 delta[B5,B3,1] <= 9979
 PM[B5,B4,0]: - c[B4,0] + c[B5,0] + 100 delta[B5,B4,0] <= 87
 PM[B5,B4,1]: - c[B4,1] + c[B5,1] + 10000 delta[B5,B4,1] <= 9987
 PM[B5,B6,0]: c[B5,0] - c[B6,0] + 100 delta[B5,B6,0] <= 87
 PM[B5,B6,1]: c[B5,1] - c[B6,1] + 10000 delta[B5,B6,1] <= 9988
 PM[B5,B7,0]: c[B5,0] - c[B7,0] + 100 delta[B5,B7,0] <= 68
 PM[B5,B7,1]: c[B5,1] - c[B7,1] + 9996 delta[B5,B7,1] <= 9976.5
 PM[B5,B8,0]: c[B5,0] - c[B8,0] + 100 delta[B5,B8,0] <= 85.5
 PM[B5,B8,1]: c[B5,1] - c[B8,1] + 9996 delta[B5,B8,1] <= 9975
 PM[B5,B9,0]: c[B5,0] - c[B9,0] + 100 delta[B5,B9,0] <= 79.5
 PM[B5,B9,1]: c[B5,1] - c[B9,1] + 10000 delta[B5,B9,1] <= 9983
 PM[B5,B10,0]: c[B5,0] - c[B10,0] + 100 delta[B5,B10,0] <= 92.5
 PM[B5,B10,1]: c[B5,1] - c[B10,1] + 9999 delta[B5,B10,1] <= 9986.5
 PM[B5,B11,0]: c[B5,0] - c[B11,0] + 100 delta[B5,B11,0] <= 92
 PM[B5,B11,1]: c[B5,1] - c[B11,1] + 10000 delta[B5,B11,1] <= 9986.5
 PM[B5,B12,0]: c[B5,0] - c[B12,0] + 100 delta[B5,B12,0] <= 73
 PM[B5,B12,1]: c[B5,1] - c[B12,1] + 9996 delta[B5,B12,1] <= 9974
 PM[B5,B13,0]: c[B5,0] - c[B13,0] + 100 delta[B5,B13,0] <= 86
 PM[B5,B13,1]: c[B5,1] - c[B13,1] + 9998 delta[B5,B13,1] <= 9983.5
 PM[B5,B14,0]: c[B5,0] - c[B14,0] + 100 delta[B5,B14,0] <= 80.5
 PM[B5,B14,1]: c[B5,1] - c[B14,1] + 10000 delta[B5,B14,1] <= 9984.5
 PM[B5,B15,0]: c[B5,0] - c[B15,0] + 100 delta[B5,B15,0] <= 86.5
 PM[B5,B15,1]: c[B5,1] - c[B15,1] + 9996 delta[B5,B15,1] <= 9983
 PM[B5,B16,0]: c[B5,0] - c[B16,0] + 100 delta[B5,B16,0] <= 91
 PM[B5,B16,1]: c[B5,1] - c[B16,1] + 9996 delta[B5,B16,1] <= 9976
 PM[B5,B17,0]: c[B5,0] - c[B17,0] + 100 delta[B5,B17,0] <= 90
 PM[B5,B17,1]: c[B5,1] - c[B17,1] + 10000 delta[B5,B17,1] <= 9986
 PM[B5,B18,0]: c[B5,0] - c[B18,0] + 100 delta[B5,B18,0] <= 89.5
 PM[B5,B18,1]: c[B5,1] - c[B18,1] + 9998 delta[B5,B18,1] <= 9984
 PM[B5,B19,0]: c[B5,0] - c[B19,0] + 100 delta[B5,B19,0] <= 82
 PM[B5,B19,1]: c[B5,1] - c[B19,1] + 9999 delta[B5,B19,1] <= 9985
 PM[B5,B20,0]: c[B5,0] - c[B20,0] + 100 delta[B5,B20,0] <= 90
 PM[B5,B20,1]: c[B5,1] - c[B20,1] + 10000 delta[B5,B20,1] <= 9987
 PM[B5,B21,0]: c[B5,0] - c[B21,0] + 100 delta[B5,B21,0] <= 93
 PM[B5,B21,1]: c[B5,1] - c[B21,1] + 9996 delta[B5,B21,1] <= 9981
 PM[B5,B22,0]: c[B5,0] - c[B22,0] + 100 delta[B5,B22,0] <= 91
 PM[B5,B22,1]: c[B5,1] - c[B22,1] + 9996 delta[B5,B22,1] <= 9979
 PM[B5,B23,0]: c[B5,0] - c[B23,0] + 100 delta[B5,B23,0] <= 86
 PM[B5,B23,1]: c[B5,1] - c[B23,1] + 10000 delta[B5,B23,1] <= 9989
 PM[B5,B24,0]: c[B5,0] - c[B24,0] + 100 delta[B5,B24,0] <= 93.5
 PM[B5,B24,1]: c[B5,1] - c[B24,1] + 10000 delta[B5,B24,1] <= 9984
 PM[B6,B0,0]: - c[B0,0] + c[B6,0] + 100 delta[B6,B0,0] <= 72
 PM[B6,B0,1]: - c[B0,1] + c[B6,1] + 10000 delta[B6,B0,1] <= 9987
 PM[B6,B1,0]: - c[B1,0] + c[B6,0] + 100 delta[B6,B1,0] <= 88
 PM[B6,B1,1]: - c[B1,1] + c[B6,1] + 10000 delta[B6,B1,1] <= 9985.5
 PM[B6,B2,0]: - c[B2,0] + c[B6,0] + 100 delta[B6,B2,0] <= 89.5
 PM[B6,B2,1]: - c[B2,1] + c[B6,1] + 9996 delta[B6,B2,1] <= 9982.5
 PM[B6,B3,0]: - c[B3,0] + c[B6,0] + 100 delta[B6,B3,0] <= 90
 PM[B6,B3,1]: - c[B3,1] + c[B6,1] + 9995 delta[B6,B3,1] <= 9979
 PM[B6,B4,0]: - c[B4,0] + c[B6,0] + 100 delta[B6,B4,0] <= 85
 PM[B6,B4,1]: - c[B4,1] + c[B6,1] + 10000 delta[B6,B4,1] <= 9987
 PM[B6,B5,0]: - c[B5,0] + c[B6,0] + 100 delta[B6,B5,0] <= 84
 PM[B6,B5,1]: - c[B5,1] + c[B6,1] + 10000 delta[B6,B5,1] <= 9987
 PM[B6,B7,0]: c[B6,0] - c[B7,0] + 100 delta[B6,B7,0] <= 66
 PM[B6,B7,1]: c[B6,1] - c[B7,1] + 9995 delta[B6,B7,1] <= 9976.5
 PM[B6,B8,0]: c[B6,0] - c[B8,0] + 100 delta[B6,B8,0] <= 83.5
 PM[B6,B8,1]: c[B6,1] - c[B8,1] + 9995 delta[B6,B8,1] <= 9975
 PM[B6,B9,0]: c[B6,0] - c[B9,0] + 100 delta[B6,B9,0] <= 77.5
 PM[B6,B9,1]: c[B6,1] - c[B9,1] + 10000 delta[B6,B9,1] <= 9983
 PM[B6,B10,0]: c[B6,0] - c[B10,0] + 100 delta[B6,B10,0] <= 90.5
 PM[B6,B10,1]: c[B6,1] - c[B10,1] + 9999 delta[B6,B10,1] <= 9986.5
 PM[B6,B11,0]: c[B6,0] - c[B11,0] + 100 delta[B6,B11,0] <= 90
 PM[B6,B11,1]: c[B6,1] - c[B11,1] + 10000 delta[B6,B11,1] <= 9986.5
 PM[B6,B12,0]: c[B6,0] - c[B12,0] + 100 delta[B6,B12,0] <= 71
 PM[B6,B12,1]: c[B6,1] - c[B12,1] + 9995 delta[B6,B12,1] <= 9974
 PM[B6,B13,0]: c[B6,0] - c[B13,0] + 100 delta[B6,B13,0] <= 84
 PM[B6,B13,1]: c[B6,1] - c[B13,1] + 9998 delta[B6,B13,1] <= 9983.5
 PM[B6,B14,0]: c[B6,0] - c[B14,0] + 100 delta[B6,B14,0] <= 78.5
 PM[B6,B14,1]: c[B6,1] - c[B14,1] + 10000 delta[B6,B14,1] <= 9984.5
 PM[B6,B15,0]: c[B6,0] - c[B15,0] + 100 delta[B6,B15,0] <= 84.5
 PM[B6,B15,1]: c[B6,1] - c[B15,1] + 9996 delta[B6,B15,1] <= 9983
 PM[B6,B16,0]: c[B6,0] - c[B16,0] + 100 delta[B6,B16,0] <= 89
 PM[B6,B16,1]: c[B6,1] - c[B16,1] + 9995 delta[B6,B16,1] <= 9976
 PM[B6,B17,0]: c[B6,0] - c[B17,0] + 100 delta[B6,B17,0] <= 88
 PM[B6,B17,1]: c[B6,1] - c[B17,1] + 10000 delta[B6,B17,1] <= 9986
 PM[B6,B18,0]: c[B6,0] - c[B18,0] + 100 delta[B6,B18,0] <= 87.5
 PM[B6,B18,1]: c[B6,1] - c[B18,1] + 9998 delta[B6,B18,1] <= 9984
 PM[B6,B19,0]: c[B6,0] - c[B19,0] + 100 delta[B6,B19,0] <= 80
 PM[B6,B19,1]: c[B6,1] - c[B19,1] + 9999 delta[B6,B19,1] <= 9985
 PM[B6,B20,0]: c[B6,0] - c[B20,0] + 100 delta[B6,B20,0] <= 88
 PM[B6,B20,1]: c[B6,1] - c[B20,1] + 10000 delta[B6,B20,1] <= 9987
 PM[B6,B21,0]: c[B6,0] - c[B21,0] + 100 delta[B6,B21,0] <= 91
 PM[B6,B21,1]: c[B6,1] - c[B21,1] + 9995 delta[B6,B21,1] <= 9981
 PM[B6,B22,0]: c[B6,0] - c[B22,0] + 100 delta[B6,B22,0] <= 89
 PM[B6,B22,1]: c[B6,1] - c[B22,1] + 9995 delta[B6,B22,1] <= 9979
 PM[B6,B23,0]: c[B6,0] - c[B23,0] + 100 delta[B6,B23,0] <= 84
 PM[B6,B23,1]: c[B6,1] - c[B23,1] + 10000 delta[B6,B23,1] <= 9989
 PM[B6,B24,0]: c[B6,0] - c[B24,0] + 100 delta[B6,B24,0] <= 91.5
 PM[B6,B24,1]: c[B6,1] - c[B24,1] + 10000 delta[B6,B24,1] <= 9984
 PM[B7,B0,0]: - c[B0,0] + c[B7,0] + 100 delta[B7,B0,0] <= 68
 PM[B7,B0,1]: - c[B0,1] + c[B7,1] + 10000 delta[B7,B0,1] <= 9974.5
 PM[B7,B1,0]: - c[B1,0] + c[B7,0] + 100 delta[B7,B1,0] <= 84
 PM[B7,B1,1]: - c[B1,1] + c[B7,1] + 10000 delta[B7,B1,1] <= 9973
 PM[B7,B2,0]: - c[B2,0] + c[B7,0] + 100 delta[B7,B2,0] <= 85.5
 PM[B7,B2,1]: - c[B2,1] + c[B7,1] + 9996 delta[B7,B2,1] <= 9970
 PM[B7,B3,0]: - c[B3,0] + c[B7,0] + 100 delta[B7,B3,0] <= 86
 PM[B7,B3,1]: - c[B3,1] + c[B7,1] + 9993 delta[B7,B3,1] <= 9966.5
 PM[B7,B4,0]: - c[B4,0] + c[B7,0] + 100 delta[B7,B4,0] <= 81
 PM[B7,B4,1]: - c[B4,1] + c[B7,1] + 10000 delta[B7,B4,1] <= 9974.5
 PM[B7,B5,0]: - c[B5,0] + c[B7,0] + 100 delta[B7,B5,0] <= 80
 PM[B7,B5,1]: - c[B5,1] + c[B7,1] + 10000 delta[B7,B5,1] <= 9974.5
 PM[B7,B6,0]: - c[B6,0] + c[B7,0] + 100 delta[B7,B6,0] <= 81
 PM[B7,B6,1]: - c[B6,1] + c[B7,1] + 10000 delta[B7,B6,1] <= 9975.5
 PM[B7,B8,0]: c[B7,0] - c[B8,0] + 100 delta[B7,B8,0] <= 79.5
 PM[B7,B8,1]: c[B7,1] - c[B8,1] + 9990 delta[B7,B8,1] <= 9962.5
 PM[B7,B9,0]: c[B7,0] - c[B9,0] + 100 delta[B7,B9,0] <= 73.5
 PM[B7,B9,1]: c[B7,1] - c[B9,1] + 10000 delta[B7,B9,1] <= 9970.5
 PM[B7,B10,0]: c[B7,0] - c[B10,0] + 100 delta[B7,B10,0] <= 86.5
 PM[B7,B10,1]: c[B7,1] - c[B10,1] + 9999 delta[B7,B10,1] <= 9974
 PM[B7,B11,0]: c[B7,0] - c[B11,0] + 100 delta[B7,B11,0] <= 86
 PM[B7,B11,1]: c[B7,1] - c[B11,1] + 10000 delta[B7,B11,1] <= 9974
 PM[B7,B12,0]: c[B7,0] - c[B12,0] + 100 delta[B7,B12,0] <= 67
 PM[B7,B12,1]: c[B7,1] - c[B12,1] + 9992 delta[B7,B12,1] <= 9961.5
 PM[B7,B13,0]: c[B7,0] - c[B13,0] + 100 delta[B7,B13,0] <= 80
 PM[B7,B13,1]: c[B7,1] - c[B13,1] + 9998 delta[B7,B13,1] <= 9971
 PM[B7,B14,0]: c[B7,0] - c[B14,0] + 100 delta[B7,B14,0] <= 74.5
 PM[B7,B14,1]: c[B7,1] - c[B14,1] + 10000 delta[B7,B14,1] <= 9972
 PM[B7,B15,0]: c[B7,0] - c[B15,0] + 100 delta[B7,B15,0] <= 80.5
 PM[B7,B15,1]: c[B7,1] - c[B15,1] + 9996 delta[B7,B15,1] <= 9970.5
 PM[B7,B16,0]: c[B7,0] - c[B16,0] + 100 delta[B7,B16,0] <= 85
 PM[B7,B16,1]: c[B7,1] - c[B16,1] + 9990 delta[B7,B16,1] <= 9963.5
 PM[B7,B17,0]: c[B7,0] - c[B17,0] + 100 delta[B7,B17,0] <= 84
 PM[B7,B17,1]: c[B7,1] - c[B17,1] + 10000 delta[B7,B17,1] <= 9973.5
 PM[B7,B18,0]: c[B7,0] - c[B18,0] + 100 delta[B7,B18,0] <= 83.5
 PM[B7,B18,1]: c[B7,1] - c[B18,1] + 9998 delta[B7,B18,1] <= 9971.5
 PM[B7,B19,0]: c[B7,0] - c[B19,0] + 100 delta[B7,B19,0] <= 76
 PM[B7,B19,1]: c[B7,1] - c[B19,1] + 9999 delta[B7,B19,1] <= 9972.5
 PM[B7,B20,0]: c[B7,0] - c[B20,0] + 100 delta[B7,B20,0] <= 84
 PM[B7,B20,1]: c[B7,1] - c[B20,1] + 10000 delta[B7,B20,1] <= 9974.5
 PM[B7,B21,0]: c[B7,0] - c[B21,0] + 100 delta[B7,B21,0] <= 87
 PM[B7,B21,1]: c[B7,1] - c[B21,1] + 9993 delta[B7,B21,1] <= 9968.5
 PM[B7,B22,0]: c[B7,0] - c[B22,0] + 100 delta[B7,B22,0] <= 85
 PM[B7,B22,1]: c[B7,1] - c[B22,1] + 9993 delta[B7,B22,1] <= 9966.5
 PM[B7,B23,0]: c[B7,0] - c[B23,0] + 100 delta[B7,B23,0] <= 80
 PM[B7,B23,1]: c[B7,1] - c[B23,1] + 10000 delta[B7,B23,1] <= 9976.5
 PM[B7,B24,0]: c[B7,0] - c[B24,0] + 100 delta[B7,B24,0] <= 87.5
 PM[B7,B24,1]: c[B7,1] - c[B24,1] + 10000 delta[B7,B24,1] <= 9971.5
 PM[B8,B0,0]: - c[B0,0] + c[B8,0] + 100 delta[B8,B0,0] <= 71.5
 PM[B8,B0,1]: - c[B0,1] + c[B8,1] + 10000 delta[B8,B0,1] <= 9989
 PM[B8,B1,0]: - c[B1,0] + c[B8,0] + 100 delta[B8,B1,0] <= 87.5
 PM[B8,B1,1]: - c[B1,1] + c[B8,1] + 10000 delta[B8,B1,1] <= 9987.5
 PM[B8,B2,0]: - c[B2,0] + c[B8,0] + 100 delta[B8,B2,0] <= 89
 PM[B8,B2,1]: - c[B2,1] + c[B8,1] + 10000 delta[B8,B2,1] <= 9984.5
 PM[B8,B3,0]: - c[B3,0] + c[B8,0] + 100 delta[B8,B3,0] <= 89.5
 PM[B8,B3,1]: - c[B3,1] + c[B8,1] + 10000 delta[B8,B3,1] <= 9981
 PM[B8,B4,0]: - c[B4,0] + c[B8,0] + 100 delta[B8,B4,0] <= 84.5
 PM[B8,B4,1]: - c[B4,1] + c[B8,1] + 10000 delta[B8,B4,1] <= 9989
 PM[B8,B5,0]: - c[B5,0] + c[B8,0] + 100 delta[B8,B5,0] <= 83.5
 PM[B8,B5,1]: - c[B5,1] + c[B8,1] + 10000 delta[B8,B5,1] <= 9989
 PM[B8,B6,0]: - c[B6,0] + c[B8,0] + 100 delta[B8,B6,0] <= 84.5
 PM[B8,B6,1]: - c[B6,1] + c[B8,1] + 10000 delta[B8,B6,1] <= 9990
 PM[B8,B7,0]: - c[B7,0] + c[B8,0] + 100 delta[B8,B7,0] <= 65.5
 PM[B8,B7,1]: - c[B7,1] + c[B8,1] + 10000 delta[B8,B7,1] <= 9978.5
 PM[B8,B9,0]: c[B8,0] - c[B9,0] + 100 delta[B8,B9,0] <= 77
 PM[B8,B9,1]: c[B8,1] - c[B9,1] + 10000 delta[B8,B9,1] <= 9985
 PM[B8,B10,0]: c[B8,0] - c[B10,0] + 100 delta[B8,B10,0] <= 90
 PM[B8,B10,1]: c[B8,1] - c[B10,1] + 10000 delta[B8,B10,1] <= 9988.5
 PM[B8,B11,0]: c[B8,0] - c[B11,0] + 100 delta[B8,B11,0] <= 89.5
 PM[B8,B11,1]: c[B8,1] - c[B11,1] + 10000 delta[B8,B11,1] <= 9988.5
 PM[B8,B12,0]: c[B8,0] - c[B12,0] + 100 delta[B8,B12,0] <= 70.5
 PM[B8,B12,1]: c[B8,1] - c[B12,1] + 10000 delta[B8,B12,1] <= 9976
 PM[B8,B13,0]: c[B8,0] - c[B13,0] + 100 delta[B8,B13,0] <= 83.5
 PM[B8,B13,1]: c[B8,1] - c[B13,1] + 10000 delta[B8,B13,1] <= 9985.5
 PM[B8,B14,0]: c[B8,0] - c[B14,0] + 100 delta[B8,B14,0] <= 78
 PM[B8,B14,1]: c[B8,1] - c[B14,1] + 10000 delta[B8,B14,1] <= 9986.5
 PM[B8,B15,0]: c[B8,0] - c[B15,0] + 100 delta[B8,B15,0] <= 84
 PM[B8,B15,1]: c[B8,1] - c[B15,1] + 10000 delta[B8,B15,1] <= 9985
 PM[B8,B16,0]: c[B8,0] - c[B16,0] + 100 delta[B8,B16,0] <= 88.5
 PM[B8,B16,1]: c[B8,1] - c[B16,1] + 10000 delta[B8,B16,1] <= 9978
 PM[B8,B17,0]: c[B8,0] - c[B17,0] + 100 delta[B8,B17,0] <= 87.5
 PM[B8,B17,1]: c[B8,1] - c[B17,1] + 10000 delta[B8,B17,1] <= 9988
 PM[B8,B18,0]: c[B8,0] - c[B18,0] + 100 delta[B8,B18,0] <= 87
 PM[B8,B18,1]: c[B8,1] - c[B18,1] + 10000 delta[B8,B18,1] <= 9986
 PM[B8,B19,0]: c[B8,0] - c[B19,0] + 100 delta[B8,B19,0] <= 79.5
 PM[B8,B19,1]: c[B8,1] - c[B19,1] + 10000 delta[B8,B19,1] <= 9987
 PM[B8,B20,0]: c[B8,0] - c[B20,0] + 100 delta[B8,B20,0] <= 87.5
 PM[B8,B20,1]: c[B8,1] - c[B20,1] + 10000 delta[B8,B20,1] <= 9989
 PM[B8,B21,0]: c[B8,0] - c[B21,0] + 100 delta[B8,B21,0] <= 90.5
 PM[B8,B21,1]: c[B8,1] - c[B21,1] + 10000 delta[B8,B21,1] <= 9983
 PM[B8,B22,0]: c[B8,0] - c[B22,0] + 100 delta[B8,B22,0] <= 88.5
 PM[B8,B22,1]: c[B8,1] - c[B22,1] + 10000 delta[B8,B22,1] <= 9981
 PM[B8,B23,0]: c[B8,0] - c[B23,0] + 100 delta[B8,B23,0] <= 83.5
 PM[B8,B23,1]: c[B8,1] - c[B23,1] + 10000 delta[B8,B23,1] <= 9991
 PM[B8,B24,0]: c[B8,0] - c[B24,0] + 100 delta[B8,B24,0] <= 91
 PM[B8,B24,1]: c[B8,1] - c[B24,1] + 10000 delta[B8,B24,1] <= 9986
 PM[B9,B0,0]: - c[B0,0] + c[B9,0] + 100 delta[B9,B0,0] <= 72.5
 PM[B9,B0,1]: - c[B0,1] + c[B9,1] + 10000 delta[B9,B0,1] <= 9986
 PM[B9,B1,0]: - c[B1,0] + c[B9,0] + 100 delta[B9,B1,0] <= 88.5
 PM[B9,B1,1]: - c[B1,1] + c[B9,1] + 10000 delta[B9,B1,1] <= 9984.5
 PM[B9,B2,0]: - c[B2,0] + c[B9,0] + 100 delta[B9,B2,0] <= 90
 PM[B9,B2,1]: - c[B2,1] + c[B9,1] + 9999 delta[B9,B2,1] <= 9981.5
 PM[B9,B3,0]: - c[B3,0] + c[B9,0] + 100 delta[B9,B3,0] <= 90.5
 PM[B9,B3,1]: - c[B3,1] + c[B9,1] + 9999 delta[B9,B3,1] <= 9978
 PM[B9,B4,0]: - c[B4,0] + c[B9,0] + 100 delta[B9,B4,0] <= 85.5
 PM[B9,B4,1]: - c[B4,1] + c[B9,1] + 10000 delta[B9,B4,1] <= 9986
 PM[B9,B5,0]: - c[B5,0] + c[B9,0] + 100 delta[B9,B5,0] <= 84.5
 PM[B9,B5,1]: - c[B5,1] + c[B9,1] + 10000 delta[B9,B5,1] <= 9986
 PM[B9,B6,0]: - c[B6,0] + c[B9,0] + 100 delta[B9,B6,0] <= 85.5
 PM[B9,B6,1]: - c[B6,1] + c[B9,1] + 10000 delta[B9,B6,1] <= 9987
 PM[B9,B7,0]: - c[B7,0] + c[B9,0] + 100 delta[B9,B7,0] <= 66.5
 PM[B9,B7,1]: - c[B7,1] + c[B9,1] + 9999 delta[B9,B7,1] <= 9975.5
 PM[B9,B8,0]: - c[B8,0] + c[B9,0] + 100 delta[B9,B8,0] <= 84
 PM[B9,B8,1]: - c[B8,1] + c[B9,1] + 9999 delta[B9,B8,1] <= 9974
 PM[B9,B10,0]: c[B9,0] - c[B10,0] + 100 delta[B9,B10,0] <= 91
 PM[B9,B10,1]: c[B9,1] - c[B10,1] + 9999 delta[B9,B10,1] <= 9985.5
 PM[B9,B11,0]: c[B9,0] - c[B11,0] + 100 delta[B9,B11,0] <= 90.5
 PM[B9,B11,1]: c[B9,1] - c[B11,1] + 10000 delta[B9,B11,1] <= 9985.5
 PM[B9,B12,0]: c[B9,0] - c[B12,0] + 100 delta[B9,B12,0] <= 71.5
 PM[B9,B12,1]: c[B9,1] - c[B12,1] + 9999 delta[B9,B12,1] <= 9973
 PM[B9,B13,0]: c[B9,0] - c[B13,0] + 100 delta[B9,B13,0] <= 84.5
 PM[B9,B13,1]: c[B9,1] - c[B13,1] + 9999 delta[B9,B13,1] <= 9982.5
 PM[B9,B14,0]: c[B9,0] - c[B14,0] + 100 delta[B9,B14,0] <= 79
 PM[B9,B14,1]: c[B9,1] - c[B14,1] + 10000 delta[B9,B14,1] <= 9983.5
 PM[B9,B15,0]: c[B9,0] - c[B15,0] + 100 delta[B9,B15,0] <= 85
 PM[B9,B15,1]: c[B9,1] - c[B15,1] + 9999 delta[B9,B15,1] <= 9982
 PM[B9,B16,0]: c[B9,0] - c[B16,0] + 100 delta[B9,B16,0] <= 89.5
 PM[B9,B16,1]: c[B9,1] - c[B16,1] + 9999 delta[B9,B16,1] <= 9975
 PM[B9,B17,0]: c[B9,0] - c[B17,0] + 100 delta[B9,B17,0] <= 88.5
 PM[B9,B17,1]: c[B9,1] - c[B17,1] + 10000 delta[B9,B17,1] <= 9985
 PM[B9,B18,0]: c[B9,0] - c[B18,0] + 100 delta[B9,B18,0] <= 88
 PM[B9,B18,1]: c[B9,1] - c[B18,1] + 9999 delta[B9,B18,1] <= 9983
 PM[B9,B19,0]: c[B9,0] - c[B19,0] + 100 delta[B9,B19,0] <= 80.5
 PM[B9,B19,1]: c[B9,1] - c[B19,1] + 9999 delta[B9,B19,1] <= 9984
 PM[B9,B20,0]: c[B9,0] - c[B20,0] + 100 delta[B9,B20,0] <= 88.5
 PM[B9,B20,1]: c[B9,1] - c[B20,1] + 10000 delta[B9,B20,1] <= 9986
 PM[B9,B21,0]: c[B9,0] - c[B21,0] + 100 delta[B9,B21,0] <= 91.5
 PM[B9,B21,1]: c[B9,1] - c[B21,1] + 9999 delta[B9,B21,1] <= 9980
 PM[B9,B22,0]: c[B9,0] - c[B22,0] + 100 delta[B9,B22,0] <= 89.5
 PM[B9,B22,1]: c[B9,1] - c[B22,1] + 9999 delta[B9,B22,1] <= 9978
 PM[B9,B23,0]: c[B9,0] - c[B23,0] + 100 delta[B9,B23,0] <= 84.5
 PM[B9,B23,1]: c[B9,1] - c[B23,1] + 10000 delta[B9,B23,1] <= 9988
 PM[B9,B24,0]: c[B9,0] - c[B24,0] + 100 delta[B9,B24,0] <= 92
 PM[B9,B24,1]: c[B9,1] - c[B24,1] + 10000 delta[B9,B24,1] <= 9983
 PM[B10,B0,0]: - c[B0,0] + c[B10,0] + 100 delta[B10,B0,0] <= 74.5
 PM[B10,B0,1]: - c[B0,1] + c[B10,1] + 10000 delta[B10,B0,1] <= 9991.5
 PM[B10,B1,0]: - c[B1,0] + c[B10,0] + 100 delta[B10,B1,0] <= 90.5
 PM[B10,B1,1]: - c[B1,1] + c[B10,1] + 10000 delta[B10,B1,1] <= 9990
 PM[B10,B2,0]: - c[B2,0] + c[B10,0] + 100 delta[B10,B2,0] <= 92
 PM[B10,B2,1]: - c[B2,1] + c[B10,1] + 10000 delta[B10,B2,1] <= 9987
 PM[B10,B3,0]: - c[B3,0] + c[B10,0] + 100 delta[B10,B3,0] <= 92.5
 PM[B10,B3,1]: - c[B3,1] + c[B10,1] + 10000 delta[B10,B3,1] <= 9983.5
 PM[B10,B4,0]: - c[B4,0] + c[B10,0] + 100 delta[B10,B4,0] <= 87.5
 PM[B10,B4,1]: - c[B4,1] + c[B10,1] + 10000 delta[B10,B4,1] <= 9991.5
 PM[B10,B5,0]: - c[B5,0] + c[B10,0] + 100 delta[B10,B5,0] <= 86.5
 PM[B10,B5,1]: - c[B5,1] + c[B10,1] + 10000 delta[B10,B5,1] <= 9991.5
 PM[B10,B6,0]: - c[B6,0] + c[B10,0] + 100 delta[B10,B6,0] <= 87.5
 PM[B10,B6,1]: - c[B6,1] + c[B10,1] + 10000 delta[B10,B6,1] <= 9992.5
 PM[B10,B7,0]: - c[B7,0] + c[B10,0] + 100 delta[B10,B7,0] <= 68.5
 PM[B10,B7,1]: - c[B7,1] + c[B10,1] + 10000 delta[B10,B7,1] <= 9981
 PM[B10,B8,0]: - c[B8,0] + c[B10,0] + 100 delta[B10,B8,0] <= 86
 PM[B10,B8,1]: - c[B8,1] + c[B10,1] + 10000 delta[B10,B8,1] <= 9979.5
 PM[B10,B9,0]: - c[B9,0] + c[B10,0] + 100 delta[B10,B9,0] <= 80
 PM[B10,B9,1]: - c[B9,1] + c[B10,1] + 10000 delta[B10,B9,1] <= 9987.5
 PM[B10,B11,0]: c[B10,0] - c[B11,0] + 100 delta[B10,B11,0] <= 92.5
 PM[B10,B11,1]: c[B10,1] - c[B11,1] + 10000 delta[B10,B11,1] <= 9991
 PM[B10,B12,0]: c[B10,0] - c[B12,0] + 100 delta[B10,B12,0] <= 73.5
 PM[B10,B12,1]: c[B10,1] - c[B12,1] + 10000 delta[B10,B12,1] <= 9978.5
 PM[B10,B13,0]: c[B10,0] - c[B13,0] + 100 delta[B10,B13,0] <= 86.5
 PM[B10,B13,1]: c[B10,1] - c[B13,1] + 10000 delta[B10,B13,1] <= 9988
 PM[B10,B14,0]: c[B10,0] - c[B14,0] + 100 delta[B10,B14,0] <= 81
 PM[B10,B14,1]: c[B10,1] - c[B14,1] + 10000 delta[B10,B14,1] <= 9989
 PM[B10,B15,0]: c[B10,0] - c[B15,0] + 100 delta[B10,B15,0] <= 87
 PM[B10,B15,1]: c[B10,1] - c[B15,1] + 10000 delta[B10,B15,1] <= 9987.5
 PM[B10,B16,0]: c[B10,0] - c[B16,0] + 100 delta[B10,B16,0] <= 91.5
 PM[B10,B16,1]: c[B10,1] - c[B16,1] + 10000 delta[B10,B16,1] <= 9980.5
 PM[B10,B17,0]: c[B10,0] - c[B17,0] + 100 delta[B10,B17,0] <= 90.5
 PM[B10,B17,1]: c[B10,1] - c[B17,1] + 10000 delta[B10,B17,1] <= 9990.5
 PM[B10,B18,0]: c[B10,0] - c[B18,0] + 100 delta[B10,B18,0] <= 90
 PM[B10,B18,1]: c[B10,1] - c[B18,1] + 10000 delta[B10,B18,1] <= 9988.5
 PM[B10,B19,0]: c[B10,0] - c[B19,0] + 100 delta[B10,B19,0] <= 82.5
 PM[B10,B19,1]: c[B10,1] - c[B19,1] + 10000 delta[B10,B19,1] <= 9989.5
 PM[B10,B20,0]: c[B10,0] - c[B20,0] + 100 delta[B10,B20,0] <= 90.5
 PM[B10,B20,1]: c[B10,1] - c[B20,1] + 10000 delta[B10,B20,1] <= 9991.5
 PM[B10,B21,0]: c[B10,0] - c[B21,0] + 100 delta[B10,B21,0] <= 93.5
 PM[B10,B21,1]: c[B10,1] - c[B21,1] + 10000 delta[B10,B21,1] <= 9985.5
 PM[B10,B22,0]: c[B10,0] - c[B22,0] + 100 delta[B10,B22,0] <= 91.5
 PM[B10,B22,1]: c[B10,1] - c[B22,1] + 10000 delta[B10,B22,1] <= 9983.5
 PM[B10,B23,0]: c[B10,0] - c[B23,0] + 100 delta[B10,B23,0] <= 86.5
 PM[B10,B23,1]: c[B10,1] - c[B23,1] + 10000 delta[B10,B23,1] <= 9993.5
 PM[B10,B24,0]: c[B10,0] - c[B24,0] + 100 delta[B10,B24,0] <= 94
 PM[B10,B24,1]: c[B10,1] - c[B24,1] + 10000 delta[B10,B24,1] <= 9988.5
 PM[B11,B0,0]: - c[B0,0] + c[B11,0] + 98 delta[B11,B0,0] <= 72
 PM[B11,B0,1]: - c[B0,1] + c[B11,1] + 10000 delta[B11,B0,1] <= 9990.5
 PM[B11,B1,0]: - c[B1,0] + c[B11,0] + 98 delta[B11,B1,0] <= 88
 PM[B11,B1,1]: - c[B1,1] + c[B11,1] + 10000 delta[B11,B1,1] <= 9989
 PM[B11,B2,0]: - c[B2,0] + c[B11,0] + 100 delta[B11,B2,0] <= 89.5
 PM[B11,B2,1]: - c[B2,1] + c[B11,1] + 10000 delta[B11,B2,1] <= 9986
 PM[B11,B3,0]: - c[B3,0] + c[B11,0] + 100 delta[B11,B3,0] <= 90
 PM[B11,B3,1]: - c[B3,1] + c[B11,1] + 10000 delta[B11,B3,1] <= 9982.5
 PM[B11,B4,0]: - c[B4,0] + c[B11,0] + 98 delta[B11,B4,0] <= 85
 PM[B11,B4,1]: - c[B4,1] + c[B11,1] + 10000 delta[B11,B4,1] <= 9990.5
 PM[B11,B5,0]: - c[B5,0] + c[B11,0] + 98 delta[B11,B5,0] <= 84
 PM[B11,B5,1]: - c[B5,1] + c[B11,1] + 10000 delta[B11,B5,1] <= 9990.5
 PM[B11,B6,0]: - c[B6,0] + c[B11,0] + 98 delta[B11,B6,0] <= 85
 PM[B11,B6,1]: - c[B6,1] + c[B11,1] + 10000 delta[B11,B6,1] <= 9991.5
 PM[B11,B7,0]: - c[B7,0] + c[B11,0] + 98 delta[B11,B7,0] <= 66
 PM[B11,B7,1]: - c[B7,1] + c[B11,1] + 10000 delta[B11,B7,1] <= 9980
 PM[B11,B8,0]: - c[B8,0] + c[B11,0] + 98 delta[B11,B8,0] <= 83.5
 PM[B11,B8,1]: - c[B8,1] + c[B11,1] + 10000 delta[B11,B8,1] <= 9978.5
 PM[B11,B9,0]: - c[B9,0] + c[B11,0] + 98 delta[B11,B9,0] <= 77.5
 PM[B11,B9,1]: - c[B9,1] + c[B11,1] + 10000 delta[B11,B9,1] <= 9986.5
 PM[B11,B10,0]: - c[B10,0] + c[B11,0] + 100 delta[B11,B10,0] <= 90.5
 PM[B11,B10,1]: - c[B10,1] + c[B11,1] + 10000 delta[B11,B10,1] <= 9990
 PM[B11,B12,0]: c[B11,0] - c[B12,0] + 98 delta[B11,B12,0] <= 71
 PM[B11,B12,1]: c[B11,1] - c[B12,1] + 10000 delta[B11,B12,1] <= 9977.5
 PM[B11,B13,0]: c[B11,0] - c[B13,0] + 98 delta[B11,B13,0] <= 84
 PM[B11,B13,1]: c[B11,1] - c[B13,1] + 10000 delta[B11,B13,1] <= 9987
 PM[B11,B14,0]: c[B11,0] - c[B14,0] + 98 delta[B11,B14,0] <= 78.5
 PM[B11,B14,1]: c[B11,1] - c[B14,1] + 10000 delta[B11,B14,1] <= 9988
 PM[B11,B15,0]: c[B11,0] - c[B15,0] + 100 delta[B11,B15,0] <= 84.5
 PM[B11,B15,1]: c[B11,1] - c[B15,1] + 10000 delta[B11,B15,1] <= 9986.5
 PM[B11,B16,0]: c[B11,0] - c[B16,0] + 100 delta[B11,B16,0] <= 89
 PM[B11,B16,1]: c[B11,1] - c[B16,1] + 10000 delta[B11,B16,1] <= 9979.5
 PM[B11,B17,0]: c[B11,0] - c[B17,0] + 100 delta[B11,B17,0] <= 88
 PM[B11,B17,1]: c[B11,1] - c[B17,1] + 10000 delta[B11,B17,1] <= 9989.5
 PM[B11,B18,0]: c[B11,0] - c[B18,0] + 100 delta[B11,B18,0] <= 87.5
 PM[B11,B18,1]: c[B11,1] - c[B18,1] + 10000 delta[B11,B18,1] <= 9987.5
 PM[B11,B19,0]: c[B11,0] - c[B19,0] + 98 delta[B11,B19,0] <= 80
 PM[B11,B19,1]: c[B11,1] - c[B19,1] + 10000 delta[B11,B19,1] <= 9988.5
 PM[B11,B20,0]: c[B11,0] - c[B20,0] + 100 delta[B11,B20,0] <= 88
 PM[B11,B20,1]: c[B11,1] - c[B20,1] + 10000 delta[B11,B20,1] <= 9990.5
 PM[B11,B21,0]: c[B11,0] - c[B21,0] + 100 delta[B11,B21,0] <= 91
 PM[B11,B21,1]: c[B11,1] - c[B21,1] + 10000 delta[B11,B21,1] <= 9984.5
 PM[B11,B22,0]: c[B11,0] - c[B22,0] + 100 delta[B11,B22,0] <= 89
 PM[B11,B22,1]: c[B11,1] - c[B22,1] + 10000 delta[B11,B22,1] <= 9982.5
 PM[B11,B23,0]: c[B11,0] - c[B23,0] + 98 delta[B11,B23,0] <= 84
 PM[B11,B23,1]: c[B11,1] - c[B23,1] + 10000 delta[B11,B23,1] <= 9992.5
 PM[B11,B24,0]: c[B11,0] - c[B24,0] + 100 delta[B11,B24,0] <= 91.5
 PM[B11,B24,1]: c[B11,1] - c[B24,1] + 10000 delta[B11,B24,1] <= 9987.5
 PM[B12,B0,0]: - c[B0,0] + c[B12,0] + 100 delta[B12,B0,0] <= 70
 PM[B12,B0,1]: - c[B0,1] + c[B12,1] + 10000 delta[B12,B0,1] <= 9986
 PM[B12,B1,0]: - c[B1,0] + c[B12,0] + 100 delta[B12,B1,0] <= 86
 PM[B12,B1,1]: - c[B1,1] + c[B12,1] + 10000 delta[B12,B1,1] <= 9984.5
 PM[B12,B2,0]: - c[B2,0] + c[B12,0] + 100 delta[B12,B2,0] <= 87.5
 PM[B12,B2,1]: - c[B2,1] + c[B12,1] + 10000 delta[B12,B2,1] <= 9981.5
 PM[B12,B3,0]: - c[B3,0] + c[B12,0] + 100 delta[B12,B3,0] <= 88
 PM[B12,B3,1]: - c[B3,1] + c[B12,1] + 10000 delta[B12,B3,1] <= 9978
 PM[B12,B4,0]: - c[B4,0] + c[B12,0] + 100 delta[B12,B4,0] <= 83
 PM[B12,B4,1]: - c[B4,1] + c[B12,1] + 10000 delta[B12,B4,1] <= 9986
 PM[B12,B5,0]: - c[B5,0] + c[B12,0] + 100 delta[B12,B5,0] <= 82
 PM[B12,B5,1]: - c[B5,1] + c[B12,1] + 10000 delta[B12,B5,1] <= 9986
 PM[B12,B6,0]: - c[B6,0] + c[B12,0] + 100 delta[B12,B6,0] <= 83
 PM[B12,B6,1]: - c[B6,1] + c[B12,1] + 10000 delta[B12,B6,1] <= 9987
 PM[B12,B7,0]: - c[B7,0] + c[B12,0] + 100 delta[B12,B7,0] <= 64
 PM[B12,B7,1]: - c[B7,1] + c[B12,1] + 10000 delta[B12,B7,1] <= 9975.5
 PM[B12,B8,0]: - c[B8,0] + c[B12,0] + 100 delta[B12,B8,0] <= 81.5
 PM[B12,B8,1]: - c[B8,1] + c[B12,1] + 10000 delta[B12,B8,1] <= 9974
 PM[B12,B9,0]: - c[B9,0] + c[B12,0] + 100 delta[B12,B9,0] <= 75.5
 PM[B12,B9,1]: - c[B9,1] + c[B12,1] + 10000 delta[B12,B9,1] <= 9982
 PM[B12,B10,0]: - c[B10,0] + c[B12,0] + 100 delta[B12,B10,0] <= 88.5
 PM[B12,B10,1]: - c[B10,1] + c[B12,1] + 10000 delta[B12,B10,1] <= 9985.5
 PM[B12,B11,0]: - c[B11,0] + c[B12,0] + 100 delta[B12,B11,0] <= 88
 PM[B12,B11,1]: - c[B11,1] + c[B12,1] + 10000 delta[B12,B11,1] <= 9985.5
 PM[B12,B13,0]: c[B12,0] - c[B13,0] + 100 delta[B12,B13,0] <= 82
 PM[B12,B13,1]: c[B12,1] - c[B13,1] + 10000 delta[B12,B13,1] <= 9982.5
 PM[B12,B14,0]: c[B12,0] - c[B14,0] + 100 delta[B12,B14,0] <= 76.5
 PM[B12,B14,1]: c[B12,1] - c[B14,1] + 10000 delta[B12,B14,1] <= 9983.5
 PM[B12,B15,0]: c[B12,0] - c[B15,0] + 100 delta[B12,B15,0] <= 82.5
 PM[B12,B15,1]: c[B12,1] - c[B15,1] + 10000 delta[B12,B15,1] <= 9982
 PM[B12,B16,0]: c[B12,0] - c[B16,0] + 100 delta[B12,B16,0] <= 87
 PM[B12,B16,1]: c[B12,1] - c[B16,1] + 10000 delta[B12,B16,1] <= 9975
 PM[B12,B17,0]: c[B12,0] - c[B17,0] + 100 delta[B12,B17,0] <= 86
 PM[B12,B17,1]: c[B12,1] - c[B17,1] + 10000 delta[B12,B17,1] <= 9985
 PM[B12,B18,0]: c[B12,0] - c[B18,0] + 100 delta[B12,B18,0] <= 85.5
 PM[B12,B18,1]: c[B12,1] - c[B18,1] + 10000 delta[B12,B18,1] <= 9983
 PM[B12,B19,0]: c[B12,0] - c[B19,0] + 100 delta[B12,B19,0] <= 78
 PM[B12,B19,1]: c[B12,1] - c[B19,1] + 10000 delta[B12,B19,1] <= 9984
 PM[B12,B20,0]: c[B12,0] - c[B20,0] + 100 delta[B12,B20,0] <= 86
 PM[B12,B20,1]: c[B12,1] - c[B20,1] + 10000 delta[B12,B20,1] <= 9986
 PM[B12,B21,0]: c[B12,0] - c[B21,0] + 100 delta[B12,B21,0] <= 89
 PM[B12,B21,1]: c[B12,1] - c[B21,1] + 10000 delta[B12,B21,1] <= 9980
 PM[B12,B22,0]: c[B12,0] - c[B22,0] + 100 delta[B12,B22,0] <= 87
 PM[B12,B22,1]: c[B12,1] - c[B22,1] + 10000 delta[B12,B22,1] <= 9978
 PM[B12,B23,0]: c[B12,0] - c[B23,0] + 100 delta[B12,B23,0] <= 82
 PM[B12,B23,1]: c[B12,1] - c[B23,1] + 10000 delta[B12,B23,1] <= 9988
 PM[B12,B24,0]: c[B12,0] - c[B24,0] + 100 delta[B12,B24,0] <= 89.5
 PM[B12,B24,1]: c[B12,1] - c[B24,1] + 10000 delta[B12,B24,1] <= 9983
 PM[B13,B0,0]: - c[B0,0] + c[B13,0] + 93 delta[B13,B0,0] <= 67
 PM[B13,B0,1]: - c[B0,1] + c[B13,1] + 10000 delta[B13,B0,1] <= 9988.5
 PM[B13,B1,0]: - c[B1,0] + c[B13,0] + 98 delta[B13,B1,0] <= 83
 PM[B13,B1,1]: - c[B1,1] + c[B13,1] + 10000 delta[B13,B1,1] <= 9987
 PM[B13,B2,0]: - c[B2,0] + c[B13,0] + 100 delta[B13,B2,0] <= 84.5
 PM[B13,B2,1]: - c[B2,1] + c[B13,1] + 9999 delta[B13,B2,1] <= 9984
 PM[B13,B3,0]: - c[B3,0] + c[B13,0] + 100 delta[B13,B3,0] <= 85
 PM[B13,B3,1]: - c[B3,1] + c[B13,1] + 9999 delta[B13,B3,1] <= 9980.5
 PM[B13,B4,0]: - c[B4,0] + c[B13,0] + 98 delta[B13,B4,0] <= 80
 PM[B13,B4,1]: - c[B4,1] + c[B13,1] + 10000 delta[B13,B4,1] <= 9988.5
 PM[B13,B5,0]: - c[B5,0] + c[B13,0] + 94 delta[B13,B5,0] <= 79
 PM[B13,B5,1]: - c[B5,1] + c[B13,1] + 10000 delta[B13,B5,1] <= 9988.5
 PM[B13,B6,0]: - c[B6,0] + c[B13,0] + 97 delta[B13,B6,0] <= 80
 PM[B13,B6,1]: - c[B6,1] + c[B13,1] + 10000 delta[B13,B6,1] <= 9989.5
 PM[B13,B7,0]: - c[B7,0] + c[B13,0] + 93 delta[B13,B7,0] <= 61
 PM[B13,B7,1]: - c[B7,1] + c[B13,1] + 9999 delta[B13,B7,1] <= 9978
 PM[B13,B8,0]: - c[B8,0] + c[B13,0] + 96 delta[B13,B8,0] <= 78.5
 PM[B13,B8,1]: - c[B8,1] + c[B13,1] + 9999 delta[B13,B8,1] <= 9976.5
 PM[B13,B9,0]: - c[B9,0] + c[B13,0] + 93 delta[B13,B9,0] <= 72.5
 PM[B13,B9,1]: - c[B9,1] + c[B13,1] + 10000 delta[B13,B9,1] <= 9984.5
 PM[B13,B10,0]: - c[B10,0] + c[B13,0] + 100 delta[B13,B10,0] <= 85.5
 PM[B13,B10,1]: - c[B10,1] + c[B13,1] + 9999 delta[B13,B10,1] <= 9988
 PM[B13,B11,0]: - c[B11,0] + c[B13,0] + 100 delta[B13,B11,0] <= 85
 PM[B13,B11,1]: - c[B11,1] + c[B13,1] + 10000 delta[B13,B11,1] <= 9988
 PM[B13,B12,0]: - c[B12,0] + c[B13,0] + 93 delta[B13,B12,0] <= 66
 PM[B13,B12,1]: - c[B12,1] + c[B13,1] + 9999 delta[B13,B12,1] <= 9975.5
 PM[B13,B14,0]: c[B13,0] - c[B14,0] + 93 delta[B13,B14,0] <= 73.5
 PM[B13,B14,1]: c[B13,1] - c[B14,1] + 10000 delta[B13,B14,1] <= 9986
 PM[B13,B15,0]: c[B13,0] - c[B15,0] + 100 delta[B13,B15,0] <= 79.5
 PM[B13,B15,1]: c[B13,1] - c[B15,1] + 9999 delta[B13,B15,1] <= 9984.5
 PM[B13,B16,0]: c[B13,0] - c[B16,0] + 100 delta[B13,B16,0] <= 84
 PM[B13,B16,1]: c[B13,1] - c[B16,1] + 9999 delta[B13,B16,1] <= 9977.5
 PM[B13,B17,0]: c[B13,0] - c[B17,0] + 100 delta[B13,B17,0] <= 83
 PM[B13,B17,1]: c[B13,1] - c[B17,1] + 10000 delta[B13,B17,1] <= 9987.5
 PM[B13,B18,0]: c[B13,0] - c[B18,0] + 100 delta[B13,B18,0] <= 82.5
 PM[B13,B18,1]: c[B13,1] - c[B18,1] + 9999 delta[B13,B18,1] <= 9985.5
 PM[B13,B19,0]: c[B13,0] - c[B19,0] + 94 delta[B13,B19,0] <= 75
 PM[B13,B19,1]: c[B13,1] - c[B19,1] + 9999 delta[B13,B19,1] <= 9986.5
 PM[B13,B20,0]: c[B13,0] - c[B20,0] + 100 delta[B13,B20,0] <= 83
 PM[B13,B20,1]: c[B13,1] - c[B20,1] + 10000 delta[B13,B20,1] <= 9988.5
 PM[B13,B21,0]: c[B13,0] - c[B21,0] + 100 delta[B13,B21,0] <= 86
 PM[B13,B21,1]: c[B13,1] - c[B21,1] + 9999 delta[B13,B21,1] <= 9982.5
 PM[B13,B22,0]: c[B13,0] - c[B22,0] + 100 delta[B13,B22,0] <= 84
 PM[B13,B22,1]: c[B13,1] - c[B22,1] + 9999 delta[B13,B22,1] <= 9980.5
 PM[B13,B23,0]: c[B13,0] - c[B23,0] + 94 delta[B13,B23,0] <= 79
 PM[B13,B23,1]: c[B13,1] - c[B23,1] + 10000 delta[B13,B23,1] <= 9990.5
 PM[B13,B24,0]: c[B13,0] - c[B24,0] + 100 delta[B13,B24,0] <= 86.5
 PM[B13,B24,1]: c[B13,1] - c[B24,1] + 10000 delta[B13,B24,1] <= 9985.5
 PM[B14,B0,0]: - c[B0,0] + c[B14,0] + 92 delta[B14,B0,0] <= 61.5
 PM[B14,B0,1]: - c[B0,1] + c[B14,1] + 10000 delta[B14,B0,1] <= 9988.5
 PM[B14,B1,0]: - c[B1,0] + c[B14,0] + 98 delta[B14,B1,0] <= 77.5
 PM[B14,B1,1]: - c[B1,1] + c[B14,1] + 10000 delta[B14,B1,1] <= 9987
 PM[B14,B2,0]: - c[B2,0] + c[B14,0] + 100 delta[B14,B2,0] <= 79
 PM[B14,B2,1]: - c[B2,1] + c[B14,1] + 10000 delta[B14,B2,1] <= 9984
 PM[B14,B3,0]: - c[B3,0] + c[B14,0] + 100 delta[B14,B3,0] <= 79.5
 PM[B14,B3,1]: - c[B3,1] + c[B14,1] + 10000 delta[B14,B3,1] <= 9980.5
 PM[B14,B4,0]: - c[B4,0] + c[B14,0] + 98 delta[B14,B4,0] <= 74.5
 PM[B14,B4,1]: - c[B4,1] + c[B14,1] + 10000 delta[B14,B4,1] <= 9988.5
 PM[B14,B5,0]: - c[B5,0] + c[B14,0] + 94 delta[B14,B5,0] <= 73.5
 PM[B14,B5,1]: - c[B5,1] + c[B14,1] + 10000 delta[B14,B5,1] <= 9988.5
 PM[B14,B6,0]: - c[B6,0] + c[B14,0] + 97 delta[B14,B6,0] <= 74.5
 PM[B14,B6,1]: - c[B6,1] + c[B14,1] + 10000 delta[B14,B6,1] <= 9989.5
 PM[B14,B7,0]: - c[B7,0] + c[B14,0] + 92 delta[B14,B7,0] <= 55.5
 PM[B14,B7,1]: - c[B7,1] + c[B14,1] + 10000 delta[B14,B7,1] <= 9978
 PM[B14,B8,0]: - c[B8,0] + c[B14,0] + 96 delta[B14,B8,0] <= 73
 PM[B14,B8,1]: - c[B8,1] + c[B14,1] + 10000 delta[B14,B8,1] <= 9976.5
 PM[B14,B9,0]: - c[B9,0] + c[B14,0] + 92 delta[B14,B9,0] <= 67
 PM[B14,B9,1]: - c[B9,1] + c[B14,1] + 10000 delta[B14,B9,1] <= 9984.5
 PM[B14,B10,0]: - c[B10,0] + c[B14,0] + 100 delta[B14,B10,0] <= 80
 PM[B14,B10,1]: - c[B10,1] + c[B14,1] + 10000 delta[B14,B10,1] <= 9988
 PM[B14,B11,0]: - c[B11,0] + c[B14,0] + 100 delta[B14,B11,0] <= 79.5
 PM[B14,B11,1]: - c[B11,1] + c[B14,1] + 10000 delta[B14,B11,1] <= 9988
 PM[B14,B12,0]: - c[B12,0] + c[B14,0] + 92 delta[B14,B12,0] <= 60.5
 PM[B14,B12,1]: - c[B12,1] + c[B14,1] + 10000 delta[B14,B12,1] <= 9975.5
 PM[B14,B13,0]: - c[B13,0] + c[B14,0] + 94 delta[B14,B13,0] <= 73.5
 PM[B14,B13,1]: - c[B13,1] + c[B14,1] + 10000 delta[B14,B13,1] <= 9985
 PM[B14,B15,0]: c[B14,0] - c[B15,0] + 100 delta[B14,B15,0] <= 74
 PM[B14,B15,1]: c[B14,1] - c[B15,1] + 10000 delta[B14,B15,1] <= 9984.5
 PM[B14,B16,0]: c[B14,0] - c[B16,0] + 100 delta[B14,B16,0] <= 78.5
 PM[B14,B16,1]: c[B14,1] - c[B16,1] + 10000 delta[B14,B16,1] <= 9977.5
 PM[B14,B17,0]: c[B14,0] - c[B17,0] + 100 delta[B14,B17,0] <= 77.5
 PM[B14,B17,1]: c[B14,1] - c[B17,1] + 10000 delta[B14,B17,1] <= 9987.5
 PM[B14,B18,0]: c[B14,0] - c[B18,0] + 100 delta[B14,B18,0] <= 77
 PM[B14,B18,1]: c[B14,1] - c[B18,1] + 10000 delta[B14,B18,1] <= 9985.5
 PM[B14,B19,0]: c[B14,0] - c[B19,0] + 94 delta[B14,B19,0] <= 69.5
 PM[B14,B19,1]: c[B14,1] - c[B19,1] + 10000 delta[B14,B19,1] <= 9986.5
 PM[B14,B20,0]: c[B14,0] - c[B20,0] + 100 delta[B14,B20,0] <= 77.5
 PM[B14,B20,1]: c[B14,1] - c[B20,1] + 10000 delta[B14,B20,1] <= 9988.5
 PM[B14,B21,0]: c[B14,0] - c[B21,0] + 100 delta[B14,B21,0] <= 80.5
 PM[B14,B21,1]: c[B14,1] - c[B21,1] + 10000 delta[B14,B21,1] <= 9982.5
 PM[B14,B22,0]: c[B14,0] - c[B22,0] + 100 delta[B14,B22,0] <= 78.5
 PM[B14,B22,1]: c[B14,1] - c[B22,1] + 10000 delta[B14,B22,1] <= 9980.5
 PM[B14,B23,0]: c[B14,0] - c[B23,0] + 94 delta[B14,B23,0] <= 73.5
 PM[B14,B23,1]: c[B14,1] - c[B23,1] + 10000 delta[B14,B23,1] <= 9990.5
 PM[B14,B24,0]: c[B14,0] - c[B24,0] + 100 delta[B14,B24,0] <= 81
 PM[B14,B24,1]: c[B14,1] - c[B24,1] + 10000 delta[B14,B24,1] <= 9985.5
 PM[B15,B0,0]: - c[B0,0] + c[B15,0] + 86 delta[B15,B0,0] <= 53.5
 PM[B15,B0,1]: - c[B0,1] + c[B15,1] + 10000 delta[B15,B0,1] <= 9991
 PM[B15,B1,0]: - c[B1,0] + c[B15,0] + 98 delta[B15,B1,0] <= 69.5
 PM[B15,B1,1]: - c[B1,1] + c[B15,1] + 10000 delta[B15,B1,1] <= 9989.5
 PM[B15,B2,0]: - c[B2,0] + c[B15,0] + 100 delta[B15,B2,0] <= 71
 PM[B15,B2,1]: - c[B2,1] + c[B15,1] + 10000 delta[B15,B2,1] <= 9986.5
 PM[B15,B3,0]: - c[B3,0] + c[B15,0] + 100 delta[B15,B3,0] <= 71.5
 PM[B15,B3,1]: - c[B3,1] + c[B15,1] + 10000 delta[B15,B3,1] <= 9983
 PM[B15,B4,0]: - c[B4,0] + c[B15,0] + 98 delta[B15,B4,0] <= 66.5
 PM[B15,B4,1]: - c[B4,1] + c[B15,1] + 10000 delta[B15,B4,1] <= 9991
 PM[B15,B5,0]: - c[B5,0] + c[B15,0] + 94 delta[B15,B5,0] <= 65.5
 PM[B15,B5,1]: - c[B5,1] + c[B15,1] + 10000 delta[B15,B5,1] <= 9991
 PM[B15,B6,0]: - c[B6,0] + c[B15,0] + 97 delta[B15,B6,0] <= 66.5
 PM[B15,B6,1]: - c[B6,1] + c[B15,1] + 10000 delta[B15,B6,1] <= 9992
 PM[B15,B7,0]: - c[B7,0] + c[B15,0] + 85 delta[B15,B7,0] <= 47.5
 PM[B15,B7,1]: - c[B7,1] + c[B15,1] + 10000 delta[B15,B7,1] <= 9980.5
 PM[B15,B8,0]: - c[B8,0] + c[B15,0] + 96 delta[B15,B8,0] <= 65
 PM[B15,B8,1]: - c[B8,1] + c[B15,1] + 10000 delta[B15,B8,1] <= 9979
 PM[B15,B9,0]: - c[B9,0] + c[B15,0] + 89 delta[B15,B9,0] <= 59
 PM[B15,B9,1]: - c[B9,1] + c[B15,1] + 10000 delta[B15,B9,1] <= 9987
 PM[B15,B10,0]: - c[B10,0] + c[B15,0] + 100 delta[B15,B10,0] <= 72
 PM[B15,B10,1]: - c[B10,1] + c[B15,1] + 10000 delta[B15,B10,1] <= 9990.5
 PM[B15,B11,0]: - c[B11,0] + c[B15,0] + 100 delta[B15,B11,0] <= 71.5
 PM[B15,B11,1]: - c[B11,1] + c[B15,1] + 10000 delta[B15,B11,1] <= 9990.5
 PM[B15,B12,0]: - c[B12,0] + c[B15,0] + 85 delta[B15,B12,0] <= 52.5
 PM[B15,B12,1]: - c[B12,1] + c[B15,1] + 10000 delta[B15,B12,1] <= 9978
 PM[B15,B13,0]: - c[B13,0] + c[B15,0] + 94 delta[B15,B13,0] <= 65.5
 PM[B15,B13,1]: - c[B13,1] + c[B15,1] + 10000 delta[B15,B13,1] <= 9987.5
 PM[B15,B14,0]: - c[B14,0] + c[B15,0] + 93 delta[B15,B14,0] <= 60
 PM[B15,B14,1]: - c[B14,1] + c[B15,1] + 10000 delta[B15,B14,1] <= 9988.5
 PM[B15,B16,0]: c[B15,0] - c[B16,0] + 100 delta[B15,B16,0] <= 70.5
 PM[B15,B16,1]: c[B15,1] - c[B16,1] + 10000 delta[B15,B16,1] <= 9980
 PM[B15,B17,0]: c[B15,0] - c[B17,0] + 100 delta[B15,B17,0] <= 69.5
 PM[B15,B17,1]: c[B15,1] - c[B17,1] + 10000 delta[B15,B17,1] <= 9990
 PM[B15,B18,0]: c[B15,0] - c[B18,0] + 100 delta[B15,B18,0] <= 69
 PM[B15,B18,1]: c[B15,1] - c[B18,1] + 10000 delta[B15,B18,1] <= 9988
 PM[B15,B19,0]: c[B15,0] - c[B19,0] + 94 delta[B15,B19,0] <= 61.5
 PM[B15,B19,1]: c[B15,1] - c[B19,1] + 10000 delta[B15,B19,1] <= 9989
 PM[B15,B20,0]: c[B15,0] - c[B20,0] + 100 delta[B15,B20,0] <= 69.5
 PM[B15,B20,1]: c[B15,1] - c[B20,1] + 10000 delta[B15,B20,1] <= 9991
 PM[B15,B21,0]: c[B15,0] - c[B21,0] + 100 delta[B15,B21,0] <= 72.5
 PM[B15,B21,1]: c[B15,1] - c[B21,1] + 10000 delta[B15,B21,1] <= 9985
 PM[B15,B22,0]: c[B15,0] - c[B22,0] + 100 delta[B15,B22,0] <= 70.5
 PM[B15,B22,1]: c[B15,1] - c[B22,1] + 10000 delta[B15,B22,1] <= 9983
 PM[B15,B23,0]: c[B15,0] - c[B23,0] + 94 delta[B15,B23,0] <= 65.5
 PM[B15,B23,1]: c[B15,1] - c[B23,1] + 10000 delta[B15,B23,1] <= 9993
 PM[B15,B24,0]: c[B15,0] - c[B24,0] + 100 delta[B15,B24,0] <= 73
 PM[B15,B24,1]: c[B15,1] - c[B24,1] + 10000 delta[B15,B24,1] <= 9988
 PM[B16,B0,0]: - c[B0,0] + c[B16,0] + 98 delta[B16,B0,0] <= 71
 PM[B16,B0,1]: - c[B0,1] + c[B16,1] + 10000 delta[B16,B0,1] <= 9979
 PM[B16,B1,0]: - c[B1,0] + c[B16,0] + 98 delta[B16,B1,0] <= 87
 PM[B16,B1,1]: - c[B1,1] + c[B16,1] + 10000 delta[B16,B1,1] <= 9977.5
 PM[B16,B2,0]: - c[B2,0] + c[B16,0] + 100 delta[B16,B2,0] <= 88.5
 PM[B16,B2,1]: - c[B2,1] + c[B16,1] + 9996 delta[B16,B2,1] <= 9974.5
 PM[B16,B3,0]: - c[B3,0] + c[B16,0] + 100 delta[B16,B3,0] <= 89
 PM[B16,B3,1]: - c[B3,1] + c[B16,1] + 9993 delta[B16,B3,1] <= 9971
 PM[B16,B4,0]: - c[B4,0] + c[B16,0] + 98 delta[B16,B4,0] <= 84
 PM[B16,B4,1]: - c[B4,1] + c[B16,1] + 10000 delta[B16,B4,1] <= 9979
 PM[B16,B5,0]: - c[B5,0] + c[B16,0] + 98 delta[B16,B5,0] <= 83
 PM[B16,B5,1]: - c[B5,1] + c[B16,1] + 10000 delta[B16,B5,1] <= 9979
 PM[B16,B6,0]: - c[B6,0] + c[B16,0] + 98 delta[B16,B6,0] <= 84
 PM[B16,B6,1]: - c[B6,1] + c[B16,1] + 10000 delta[B16,B6,1] <= 9980
 PM[B16,B7,0]: - c[B7,0] + c[B16,0] + 98 delta[B16,B7,0] <= 65
 PM[B16,B7,1]: - c[B7,1] + c[B16,1] + 9993 delta[B16,B7,1] <= 9968.5
 PM[B16,B8,0]: - c[B8,0] + c[B16,0] + 98 delta[B16,B8,0] <= 82.5
 PM[B16,B8,1]: - c[B8,1] + c[B16,1] + 9990 delta[B16,B8,1] <= 9967
 PM[B16,B9,0]: - c[B9,0] + c[B16,0] + 98 delta[B16,B9,0] <= 76.5
 PM[B16,B9,1]: - c[B9,1] + c[B16,1] + 10000 delta[B16,B9,1] <= 9975
 PM[B16,B10,0]: - c[B10,0] + c[B16,0] + 100 delta[B16,B10,0] <= 89.5
 PM[B16,B10,1]: - c[B10,1] + c[B16,1] + 9999 delta[B16,B10,1] <= 9978.5
 PM[B16,B11,0]: - c[B11,0] + c[B16,0] + 100 delta[B16,B11,0] <= 89
 PM[B16,B11,1]: - c[B11,1] + c[B16,1] + 10000 delta[B16,B11,1] <= 9978.5
 PM[B16,B12,0]: - c[B12,0] + c[B16,0] + 98 delta[B16,B12,0] <= 70
 PM[B16,B12,1]: - c[B12,1] + c[B16,1] + 9992 delta[B16,B12,1] <= 9966
 PM[B16,B13,0]: - c[B13,0] + c[B16,0] + 98 delta[B16,B13,0] <= 83
 PM[B16,B13,1]: - c[B13,1] + c[B16,1] + 9998 delta[B16,B13,1] <= 9975.5
 PM[B16,B14,0]: - c[B14,0] + c[B16,0] + 98 delta[B16,B14,0] <= 77.5
 PM[B16,B14,1]: - c[B14,1] + c[B16,1] + 10000 delta[B16,B14,1] <= 9976.5
 PM[B16,B15,0]: - c[B15,0] + c[B16,0] + 100 delta[B16,B15,0] <= 83.5
 PM[B16,B15,1]: - c[B15,1] + c[B16,1] + 9996 delta[B16,B15,1] <= 9975
 PM[B16,B17,0]: c[B16,0] - c[B17,0] + 100 delta[B16,B17,0] <= 87
 PM[B16,B17,1]: c[B16,1] - c[B17,1] + 10000 delta[B16,B17,1] <= 9978
 PM[B16,B18,0]: c[B16,0] - c[B18,0] + 100 delta[B16,B18,0] <= 86.5
 PM[B16,B18,1]: c[B16,1] - c[B18,1] + 9998 delta[B16,B18,1] <= 9976
 PM[B16,B19,0]: c[B16,0] - c[B19,0] + 98 delta[B16,B19,0] <= 79
 PM[B16,B19,1]: c[B16,1] - c[B19,1] + 9999 delta[B16,B19,1] <= 9977
 PM[B16,B20,0]: c[B16,0] - c[B20,0] + 100 delta[B16,B20,0] <= 87
 PM[B16,B20,1]: c[B16,1] - c[B20,1] + 10000 delta[B16,B20,1] <= 9979
 PM[B16,B21,0]: c[B16,0] - c[B21,0] + 100 delta[B16,B21,0] <= 90
 PM[B16,B21,1]: c[B16,1] - c[B21,1] + 9993 delta[B16,B21,1] <= 9973
 PM[B16,B22,0]: c[B16,0] - c[B22,0] + 100 delta[B16,B22,0] <= 88
 PM[B16,B22,1]: c[B16,1] - c[B22,1] + 9993 delta[B16,B22,1] <= 9971
 PM[B16,B23,0]: c[B16,0] - c[B23,0] + 98 delta[B16,B23,0] <= 83
 PM[B16,B23,1]: c[B16,1] - c[B23,1] + 10000 delta[B16,B23,1] <= 9981
 PM[B16,B24,0]: c[B16,0] - c[B24,0] + 100 delta[B16,B24,0] <= 90.5
 PM[B16,B24,1]: c[B16,1] - c[B24,1] + 10000 delta[B16,B24,1] <= 9976
 PM[B17,B0,0]: - c[B0,0] + c[B17,0] + 89 delta[B17,B0,0] <= 61
 PM[B17,B0,1]: - c[B0,1] + c[B17,1] + 10000 delta[B17,B0,1] <= 9990
 PM[B17,B1,0]: - c[B1,0] + c[B17,0] + 98 delta[B17,B1,0] <= 77
 PM[B17,B1,1]: - c[B1,1] + c[B17,1] + 10000 delta[B17,B1,1] <= 9988.5
 PM[B17,B2,0]: - c[B2,0] + c[B17,0] + 100 delta[B17,B2,0] <= 78.5
 PM[B17,B2,1]: - c[B2,1] + c[B17,1] + 10000 delta[B17,B2,1] <= 9985.5
 PM[B17,B3,0]: - c[B3,0] + c[B17,0] + 100 delta[B17,B3,0] <= 79
 PM[B17,B3,1]: - c[B3,1] + c[B17,1] + 10000 delta[B17,B3,1] <= 9982
 PM[B17,B4,0]: - c[B4,0] + c[B17,0] + 98 delta[B17,B4,0] <= 74
 PM[B17,B4,1]: - c[B4,1] + c[B17,1] + 10000 delta[B17,B4,1] <= 9990
 PM[B17,B5,0]: - c[B5,0] + c[B17,0] + 94 delta[B17,B5,0] <= 73
 PM[B17,B5,1]: - c[B5,1] + c[B17,1] + 10000 delta[B17,B5,1] <= 9990
 PM[B17,B6,0]: - c[B6,0] + c[B17,0] + 97 delta[B17,B6,0] <= 74
 PM[B17,B6,1]: - c[B6,1] + c[B17,1] + 10000 delta[B17,B6,1] <= 9991
 PM[B17,B7,0]: - c[B7,0] + c[B17,0] + 89 delta[B17,B7,0] <= 55
 PM[B17,B7,1]: - c[B7,1] + c[B17,1] + 10000 delta[B17,B7,1] <= 9979.5
 PM[B17,B8,0]: - c[B8,0] + c[B17,0] + 96 delta[B17,B8,0] <= 72.5
 PM[B17,B8,1]: - c[B8,1] + c[B17,1] + 10000 delta[B17,B8,1] <= 9978
 PM[B17,B9,0]: - c[B9,0] + c[B17,0] + 89 delta[B17,B9,0] <= 66.5
 PM[B17,B9,1]: - c[B9,1] + c[B17,1] + 10000 delta[B17,B9,1] <= 9986
 PM[B17,B10,0]: - c[B10,0] + c[B17,0] + 100 delta[B17,B10,0] <= 79.5
 PM[B17,B10,1]: - c[B10,1] + c[B17,1] + 10000 delta[B17,B10,1] <= 9989.5
 PM[B17,B11,0]: - c[B11,0] + c[B17,0] + 100 delta[B17,B11,0] <= 79
 PM[B17,B11,1]: - c[B11,1] + c[B17,1] + 10000 delta[B17,B11,1] <= 9989.5
 PM[B17,B12,0]: - c[B12,0] + c[B17,0] + 89 delta[B17,B12,0] <= 60
 PM[B17,B12,1]: - c[B12,1] + c[B17,1] + 10000 delta[B17,B12,1] <= 9977
 PM[B17,B13,0]: - c[B13,0] + c[B17,0] + 94 delta[B17,B13,0] <= 73
 PM[B17,B13,1]: - c[B13,1] + c[B17,1] + 10000 delta[B17,B13,1] <= 9986.5
 PM[B17,B14,0]: - c[B14,0] + c[B17,0] + 93 delta[B17,B14,0] <= 67.5
 PM[B17,B14,1]: - c[B14,1] + c[B17,1] + 10000 delta[B17,B14,1] <= 9987.5
 PM[B17,B15,0]: - c[B15,0] + c[B17,0] + 100 delta[B17,B15,0] <= 73.5
 PM[B17,B15,1]: - c[B15,1] + c[B17,1] + 10000 delta[B17,B15,1] <= 9986
 PM[B17,B16,0]: - c[B16,0] + c[B17,0] + 100 delta[B17,B16,0] <= 78
 PM[B17,B16,1]: - c[B16,1] + c[B17,1] + 10000 delta[B17,B16,1] <= 9979
 PM[B17,B18,0]: c[B17,0] - c[B18,0] + 100 delta[B17,B18,0] <= 76.5
 PM[B17,B18,1]: c[B17,1] - c[B18,1] + 10000 delta[B17,B18,1] <= 9987
 PM[B17,B19,0]: c[B17,0] - c[B19,0] + 94 delta[B17,B19,0] <= 69
 PM[B17,B19,1]: c[B17,1] - c[B19,1] + 10000 delta[B17,B19,1] <= 9988
 PM[B17,B20,0]: c[B17,0] - c[B20,0] + 100 delta[B17,B20,0] <= 77
 PM[B17,B20,1]: c[B17,1] - c[B20,1] + 10000 delta[B17,B20,1] <= 9990
 PM[B17,B21,0]: c[B17,0] - c[B21,0] + 100 delta[B17,B21,0] <= 80
 PM[B17,B21,1]: c[B17,1] - c[B21,1] + 10000 delta[B17,B21,1] <= 9984
 PM[B17,B22,0]: c[B17,0] - c[B22,0] + 100 delta[B17,B22,0] <= 78
 PM[B17,B22,1]: c[B17,1] - c[B22,1] + 10000 delta[B17,B22,1] <= 9982
 PM[B17,B23,0]: c[B17,0] - c[B23,0] + 94 delta[B17,B23,0] <= 73
 PM[B17,B23,1]: c[B17,1] - c[B23,1] + 10000 delta[B17,B23,1] <= 9992
 PM[B17,B24,0]: c[B17,0] - c[B24,0] + 100 delta[B17,B24,0] <= 80.5
 PM[B17,B24,1]: c[B17,1] - c[B24,1] + 10000 delta[B17,B24,1] <= 9987
 PM[B18,B0,0]: - c[B0,0] + c[B18,0] + 100 delta[B18,B0,0] <= 71.5
 PM[B18,B0,1]: - c[B0,1] + c[B18,1] + 10000 delta[B18,B0,1] <= 9990
 PM[B18,B1,0]: - c[B1,0] + c[B18,0] + 100 delta[B18,B1,0] <= 87.5
 PM[B18,B1,1]: - c[B1,1] + c[B18,1] + 10000 delta[B18,B1,1] <= 9988.5
 PM[B18,B2,0]: - c[B2,0] + c[B18,0] + 100 delta[B18,B2,0] <= 89
 PM[B18,B2,1]: - c[B2,1] + c[B18,1] + 10000 delta[B18,B2,1] <= 9985.5
 PM[B18,B3,0]: - c[B3,0] + c[B18,0] + 100 delta[B18,B3,0] <= 89.5
 PM[B18,B3,1]: - c[B3,1] + c[B18,1] + 10000 delta[B18,B3,1] <= 9982
 PM[B18,B4,0]: - c[B4,0] + c[B18,0] + 100 delta[B18,B4,0] <= 84.5
 PM[B18,B4,1]: - c[B4,1] + c[B18,1] + 10000 delta[B18,B4,1] <= 9990
 PM[B18,B5,0]: - c[B5,0] + c[B18,0] + 100 delta[B18,B5,0] <= 83.5
 PM[B18,B5,1]: - c[B5,1] + c[B18,1] + 10000 delta[B18,B5,1] <= 9990
 PM[B18,B6,0]: - c[B6,0] + c[B18,0] + 100 delta[B18,B6,0] <= 84.5
 PM[B18,B6,1]: - c[B6,1] + c[B18,1] + 10000 delta[B18,B6,1] <= 9991
 PM[B18,B7,0]: - c[B7,0] + c[B18,0] + 100 delta[B18,B7,0] <= 65.5
 PM[B18,B7,1]: - c[B7,1] + c[B18,1] + 10000 delta[B18,B7,1] <= 9979.5
 PM[B18,B8,0]: - c[B8,0] + c[B18,0] + 100 delta[B18,B8,0] <= 83
 PM[B18,B8,1]: - c[B8,1] + c[B18,1] + 10000 delta[B18,B8,1] <= 9978
 PM[B18,B9,0]: - c[B9,0] + c[B18,0] + 100 delta[B18,B9,0] <= 77
 PM[B18,B9,1]: - c[B9,1] + c[B18,1] + 10000 delta[B18,B9,1] <= 9986
 PM[B18,B10,0]: - c[B10,0] + c[B18,0] + 100 delta[B18,B10,0] <= 90
 PM[B18,B10,1]: - c[B10,1] + c[B18,1] + 10000 delta[B18,B10,1] <= 9989.5
 PM[B18,B11,0]: - c[B11,0] + c[B18,0] + 100 delta[B18,B11,0] <= 89.5
 PM[B18,B11,1]: - c[B11,1] + c[B18,1] + 10000 delta[B18,B11,1] <= 9989.5
 PM[B18,B12,0]: - c[B12,0] + c[B18,0] + 100 delta[B18,B12,0] <= 70.5
 PM[B18,B12,1]: - c[B12,1] + c[B18,1] + 10000 delta[B18,B12,1] <= 9977
 PM[B18,B13,0]: - c[B13,0] + c[B18,0] + 100 delta[B18,B13,0] <= 83.5
 PM[B18,B13,1]: - c[B13,1] + c[B18,1] + 10000 delta[B18,B13,1] <= 9986.5
 PM[B18,B14,0]: - c[B14,0] + c[B18,0] + 100 delta[B18,B14,0] <= 78
 PM[B18,B14,1]: - c[B14,1] + c[B18,1] + 10000 delta[B18,B14,1] <= 9987.5
 PM[B18,B15,0]: - c[B15,0] + c[B18,0] + 100 delta[B18,B15,0] <= 84
 PM[B18,B15,1]: - c[B15,1] + c[B18,1] + 10000 delta[B18,B15,1] <= 9986
 PM[B18,B16,0]: - c[B16,0] + c[B18,0] + 100 delta[B18,B16,0] <= 88.5
 PM[B18,B16,1]: - c[B16,1] + c[B18,1] + 10000 delta[B18,B16,1] <= 9979
 PM[B18,B17,0]: - c[B17,0] + c[B18,0] + 100 delta[B18,B17,0] <= 87.5
 PM[B18,B17,1]: - c[B17,1] + c[B18,1] + 10000 delta[B18,B17,1] <= 9989
 PM[B18,B19,0]: c[B18,0] - c[B19,0] + 100 delta[B18,B19,0] <= 79.5
 PM[B18,B19,1]: c[B18,1] - c[B19,1] + 10000 delta[B18,B19,1] <= 9988
 PM[B18,B20,0]: c[B18,0] - c[B20,0] + 100 delta[B18,B20,0] <= 87.5
 PM[B18,B20,1]: c[B18,1] - c[B20,1] + 10000 delta[B18,B20,1] <= 9990
 PM[B18,B21,0]: c[B18,0] - c[B21,0] + 100 delta[B18,B21,0] <= 90.5
 PM[B18,B21,1]: c[B18,1] - c[B21,1] + 10000 delta[B18,B21,1] <= 9984
 PM[B18,B22,0]: c[B18,0] - c[B22,0] + 100 delta[B18,B22,0] <= 88.5
 PM[B18,B22,1]: c[B18,1] - c[B22,1] + 10000 delta[B18,B22,1] <= 9982
 PM[B18,B23,0]: c[B18,0] - c[B23,0] + 100 delta[B18,B23,0] <= 83.5
 PM[B18,B23,1]: c[B18,1] - c[B23,1] + 10000 delta[B18,B23,1] <= 9992
 PM[B18,B24,0]: c[B18,0] - c[B24,0] + 100 delta[B18,B24,0] <= 91
 PM[B18,B24,1]: c[B18,1] - c[B24,1] + 10000 delta[B18,B24,1] <= 9987
 PM[B19,B0,0]: - c[B0,0] + c[B19,0] + 100 delta[B19,B0,0] <= 70
 PM[B19,B0,1]: - c[B0,1] + c[B19,1] + 10000 delta[B19,B0,1] <= 9990
 PM[B19,B1,0]: - c[B1,0] + c[B19,0] + 100 delta[B19,B1,0] <= 86
 PM[B19,B1,1]: - c[B1,1] + c[B19,1] + 10000 delta[B19,B1,1] <= 9988.5
 PM[B19,B2,0]: - c[B2,0] + c[B19,0] + 100 delta[B19,B2,0] <= 87.5
 PM[B19,B2,1]: - c[B2,1] + c[B19,1] + 10000 delta[B19,B2,1] <= 9985.5
 PM[B19,B3,0]: - c[B3,0] + c[B19,0] + 100 delta[B19,B3,0] <= 88
 PM[B19,B3,1]: - c[B3,1] + c[B19,1] + 10000 delta[B19,B3,1] <= 9982
 PM[B19,B4,0]: - c[B4,0] + c[B19,0] + 100 delta[B19,B4,0] <= 83
 PM[B19,B4,1]: - c[B4,1] + c[B19,1] + 10000 delta[B19,B4,1] <= 9990
 PM[B19,B5,0]: - c[B5,0] + c[B19,0] + 100 delta[B19,B5,0] <= 82
 PM[B19,B5,1]: - c[B5,1] + c[B19,1] + 10000 delta[B19,B5,1] <= 9990
 PM[B19,B6,0]: - c[B6,0] + c[B19,0] + 100 delta[B19,B6,0] <= 83
 PM[B19,B6,1]: - c[B6,1] + c[B19,1] + 10000 delta[B19,B6,1] <= 9991
 PM[B19,B7,0]: - c[B7,0] + c[B19,0] + 100 delta[B19,B7,0] <= 64
 PM[B19,B7,1]: - c[B7,1] + c[B19,1] + 10000 delta[B19,B7,1] <= 9979.5
 PM[B19,B8,0]: - c[B8,0] + c[B19,0] + 100 delta[B19,B8,0] <= 81.5
 PM[B19,B8,1]: - c[B8,1] + c[B19,1] + 10000 delta[B19,B8,1] <= 9978
 PM[B19,B9,0]: - c[B9,0] + c[B19,0] + 100 delta[B19,B9,0] <= 75.5
 PM[B19,B9,1]: - c[B9,1] + c[B19,1] + 10000 delta[B19,B9,1] <= 9986
 PM[B19,B10,0]: - c[B10,0] + c[B19,0] + 100 delta[B19,B10,0] <= 88.5
 PM[B19,B10,1]: - c[B10,1] + c[B19,1] + 10000 delta[B19,B10,1] <= 9989.5
 PM[B19,B11,0]: - c[B11,0] + c[B19,0] + 100 delta[B19,B11,0] <= 88
 PM[B19,B11,1]: - c[B11,1] + c[B19,1] + 10000 delta[B19,B11,1] <= 9989.5
 PM[B19,B12,0]: - c[B12,0] + c[B19,0] + 100 delta[B19,B12,0] <= 69
 PM[B19,B12,1]: - c[B12,1] + c[B19,1] + 10000 delta[B19,B12,1] <= 9977
 PM[B19,B13,0]: - c[B13,0] + c[B19,0] + 100 delta[B19,B13,0] <= 82
 PM[B19,B13,1]: - c[B13,1] + c[B19,1] + 10000 delta[B19,B13,1] <= 9986.5
 PM[B19,B14,0]: - c[B14,0] + c[B19,0] + 100 delta[B19,B14,0] <= 76.5
 PM[B19,B14,1]: - c[B14,1] + c[B19,1] + 10000 delta[B19,B14,1] <= 9987.5
 PM[B19,B15,0]: - c[B15,0] + c[B19,0] + 100 delta[B19,B15,0] <= 82.5
 PM[B19,B15,1]: - c[B15,1] + c[B19,1] + 10000 delta[B19,B15,1] <= 9986
 PM[B19,B16,0]: - c[B16,0] + c[B19,0] + 100 delta[B19,B16,0] <= 87
 PM[B19,B16,1]: - c[B16,1] + c[B19,1] + 10000 delta[B19,B16,1] <= 9979
 PM[B19,B17,0]: - c[B17,0] + c[B19,0] + 100 delta[B19,B17,0] <= 86
 PM[B19,B17,1]: - c[B17,1] + c[B19,1] + 10000 delta[B19,B17,1] <= 9989
 PM[B19,B18,0]: - c[B18,0] + c[B19,0] + 100 delta[B19,B18,0] <= 85.5
 PM[B19,B18,1]: - c[B18,1] + c[B19,1] + 10000 delta[B19,B18,1] <= 9987
 PM[B19,B20,0]: c[B19,0] - c[B20,0] + 100 delta[B19,B20,0] <= 86
 PM[B19,B20,1]: c[B19,1] - c[B20,1] + 10000 delta[B19,B20,1] <= 9990
 PM[B19,B21,0]: c[B19,0] - c[B21,0] + 100 delta[B19,B21,0] <= 89
 PM[B19,B21,1]: c[B19,1] - c[B21,1] + 10000 delta[B19,B21,1] <= 9984
 PM[B19,B22,0]: c[B19,0] - c[B22,0] + 100 delta[B19,B22,0] <= 87
 PM[B19,B22,1]: c[B19,1] - c[B22,1] + 10000 delta[B19,B22,1] <= 9982
 PM[B19,B23,0]: c[B19,0] - c[B23,0] + 100 delta[B19,B23,0] <= 82
 PM[B19,B23,1]: c[B19,1] - c[B23,1] + 10000 delta[B19,B23,1] <= 9992
 PM[B19,B24,0]: c[B19,0] - c[B24,0] + 100 delta[B19,B24,0] <= 89.5
 PM[B19,B24,1]: c[B19,1] - c[B24,1] + 10000 delta[B19,B24,1] <= 9987
 PM[B20,B0,0]: - c[B0,0] + c[B20,0] + 99 delta[B20,B0,0] <= 71
 PM[B20,B0,1]: - c[B0,1] + c[B20,1] + 10000 delta[B20,B0,1] <= 9990
 PM[B20,B1,0]: - c[B1,0] + c[B20,0] + 99 delta[B20,B1,0] <= 87
 PM[B20,B1,1]: - c[B1,1] + c[B20,1] + 10000 delta[B20,B1,1] <= 9988.5
 PM[B20,B2,0]: - c[B2,0] + c[B20,0] + 100 delta[B20,B2,0] <= 88.5
 PM[B20,B2,1]: - c[B2,1] + c[B20,1] + 9999 delta[B20,B2,1] <= 9985.5
 PM[B20,B3,0]: - c[B3,0] + c[B20,0] + 100 delta[B20,B3,0] <= 89
 PM[B20,B3,1]: - c[B3,1] + c[B20,1] + 9999 delta[B20,B3,1] <= 9982
 PM[B20,B4,0]: - c[B4,0] + c[B20,0] + 99 delta[B20,B4,0] <= 84
 PM[B20,B4,1]: - c[B4,1] + c[B20,1] + 10000 delta[B20,B4,1] <= 9990
 PM[B20,B5,0]: - c[B5,0] + c[B20,0] + 99 delta[B20,B5,0] <= 83
 PM[B20,B5,1]: - c[B5,1] + c[B20,1] + 10000 delta[B20,B5,1] <= 9990
 PM[B20,B6,0]: - c[B6,0] + c[B20,0] + 99 delta[B20,B6,0] <= 84
 PM[B20,B6,1]: - c[B6,1] + c[B20,1] + 10000 delta[B20,B6,1] <= 9991
 PM[B20,B7,0]: - c[B7,0] + c[B20,0] + 99 delta[B20,B7,0] <= 65
 PM[B20,B7,1]: - c[B7,1] + c[B20,1] + 9999 delta[B20,B7,1] <= 9979.5
 PM[B20,B8,0]: - c[B8,0] + c[B20,0] + 99 delta[B20,B8,0] <= 82.5
 PM[B20,B8,1]: - c[B8,1] + c[B20,1] + 9999 delta[B20,B8,1] <= 9978
 PM[B20,B9,0]: - c[B9,0] + c[B20,0] + 99 delta[B20,B9,0] <= 76.5
 PM[B20,B9,1]: - c[B9,1] + c[B20,1] + 10000 delta[B20,B9,1] <= 9986
 PM[B20,B10,0]: - c[B10,0] + c[B20,0] + 100 delta[B20,B10,0] <= 89.5
 PM[B20,B10,1]: - c[B10,1] + c[B20,1] + 9999 delta[B20,B10,1] <= 9989.5
 PM[B20,B11,0]: - c[B11,0] + c[B20,0] + 100 delta[B20,B11,0] <= 89
 PM[B20,B11,1]: - c[B11,1] + c[B20,1] + 10000 delta[B20,B11,1] <= 9989.5
 PM[B20,B12,0]: - c[B12,0] + c[B20,0] + 99 delta[B20,B12,0] <= 70
 PM[B20,B12,1]: - c[B12,1] + c[B20,1] + 9999 delta[B20,B12,1] <= 9977
 PM[B20,B13,0]: - c[B13,0] + c[B20,0] + 99 delta[B20,B13,0] <= 83
 PM[B20,B13,1]: - c[B13,1] + c[B20,1] + 9999 delta[B20,B13,1] <= 9986.5
 PM[B20,B14,0]: - c[B14,0] + c[B20,0] + 99 delta[B20,B14,0] <= 77.5
 PM[B20,B14,1]: - c[B14,1] + c[B20,1] + 10000 delta[B20,B14,1] <= 9987.5
 PM[B20,B15,0]: - c[B15,0] + c[B20,0] + 100 delta[B20,B15,0] <= 83.5
 PM[B20,B15,1]: - c[B15,1] + c[B20,1] + 9999 delta[B20,B15,1] <= 9986
 PM[B20,B16,0]: - c[B16,0] + c[B20,0] + 100 delta[B20,B16,0] <= 88
 PM[B20,B16,1]: - c[B16,1] + c[B20,1] + 9999 delta[B20,B16,1] <= 9979
 PM[B20,B17,0]: - c[B17,0] + c[B20,0] + 100 delta[B20,B17,0] <= 87
 PM[B20,B17,1]: - c[B17,1] + c[B20,1] + 10000 delta[B20,B17,1] <= 9989
 PM[B20,B18,0]: - c[B18,0] + c[B20,0] + 100 delta[B20,B18,0] <= 86.5
 PM[B20,B18,1]: - c[B18,1] + c[B20,1] + 9999 delta[B20,B18,1] <= 9987
 PM[B20,B19,0]: - c[B19,0] + c[B20,0] + 99 delta[B20,B19,0] <= 79
 PM[B20,B19,1]: - c[B19,1] + c[B20,1] + 9999 delta[B20,B19,1] <= 9988
 PM[B20,B21,0]: c[B20,0] - c[B21,0] + 100 delta[B20,B21,0] <= 90
 PM[B20,B21,1]: c[B20,1] - c[B21,1] + 9999 delta[B20,B21,1] <= 9984
 PM[B20,B22,0]: c[B20,0] - c[B22,0] + 100 delta[B20,B22,0] <= 88
 PM[B20,B22,1]: c[B20,1] - c[B22,1] + 9999 delta[B20,B22,1] <= 9982
 PM[B20,B23,0]: c[B20,0] - c[B23,0] + 99 delta[B20,B23,0] <= 83
 PM[B20,B23,1]: c[B20,1] - c[B23,1] + 10000 delta[B20,B23,1] <= 9992
 PM[B20,B24,0]: c[B20,0] - c[B24,0] + 100 delta[B20,B24,0] <= 90.5
 PM[B20,B24,1]: c[B20,1] - c[B24,1] + 10000 delta[B20,B24,1] <= 9987
 PM[B21,B0,0]: - c[B0,0] + c[B21,0] + 100 delta[B21,B0,0] <= 75
 PM[B21,B0,1]: - c[B0,1] + c[B21,1] + 10000 delta[B21,B0,1] <= 9990
 PM[B21,B1,0]: - c[B1,0] + c[B21,0] + 100 delta[B21,B1,0] <= 91
 PM[B21,B1,1]: - c[B1,1] + c[B21,1] + 10000 delta[B21,B1,1] <= 9988.5
 PM[B21,B2,0]: - c[B2,0] + c[B21,0] + 100 delta[B21,B2,0] <= 92.5
 PM[B21,B2,1]: - c[B2,1] + c[B21,1] + 9998 delta[B21,B2,1] <= 9985.5
 PM[B21,B3,0]: - c[B3,0] + c[B21,0] + 100 delta[B21,B3,0] <= 93
 PM[B21,B3,1]: - c[B3,1] + c[B21,1] + 9998 delta[B21,B3,1] <= 9982
 PM[B21,B4,0]: - c[B4,0] + c[B21,0] + 100 delta[B21,B4,0] <= 88
 PM[B21,B4,1]: - c[B4,1] + c[B21,1] + 10000 delta[B21,B4,1] <= 9990
 PM[B21,B5,0]: - c[B5,0] + c[B21,0] + 100 delta[B21,B5,0] <= 87
 PM[B21,B5,1]: - c[B5,1] + c[B21,1] + 10000 delta[B21,B5,1] <= 9990
 PM[B21,B6,0]: - c[B6,0] + c[B21,0] + 100 delta[B21,B6,0] <= 88
 PM[B21,B6,1]: - c[B6,1] + c[B21,1] + 10000 delta[B21,B6,1] <= 9991
 PM[B21,B7,0]: - c[B7,0] + c[B21,0] + 100 delta[B21,B7,0] <= 69
 PM[B21,B7,1]: - c[B7,1] + c[B21,1] + 9998 delta[B21,B7,1] <= 9979.5
 PM[B21,B8,0]: - c[B8,0] + c[B21,0] + 100 delta[B21,B8,0] <= 86.5
 PM[B21,B8,1]: - c[B8,1] + c[B21,1] + 9998 delta[B21,B8,1] <= 9978
 PM[B21,B9,0]: - c[B9,0] + c[B21,0] + 100 delta[B21,B9,0] <= 80.5
 PM[B21,B9,1]: - c[B9,1] + c[B21,1] + 10000 delta[B21,B9,1] <= 9986
 PM[B21,B10,0]: - c[B10,0] + c[B21,0] + 100 delta[B21,B10,0] <= 93.5
 PM[B21,B10,1]: - c[B10,1] + c[B21,1] + 9999 delta[B21,B10,1] <= 9989.5
 PM[B21,B11,0]: - c[B11,0] + c[B21,0] + 100 delta[B21,B11,0] <= 93
 PM[B21,B11,1]: - c[B11,1] + c[B21,1] + 10000 delta[B21,B11,1] <= 9989.5
 PM[B21,B12,0]: - c[B12,0] + c[B21,0] + 100 delta[B21,B12,0] <= 74
 PM[B21,B12,1]: - c[B12,1] + c[B21,1] + 9998 delta[B21,B12,1] <= 9977
 PM[B21,B13,0]: - c[B13,0] + c[B21,0] + 100 delta[B21,B13,0] <= 87
 PM[B21,B13,1]: - c[B13,1] + c[B21,1] + 9998 delta[B21,B13,1] <= 9986.5
 PM[B21,B14,0]: - c[B14,0] + c[B21,0] + 100 delta[B21,B14,0] <= 81.5
 PM[B21,B14,1]: - c[B14,1] + c[B21,1] + 10000 delta[B21,B14,1] <= 9987.5
 PM[B21,B15,0]: - c[B15,0] + c[B21,0] + 100 delta[B21,B15,0] <= 87.5
 PM[B21,B15,1]: - c[B15,1] + c[B21,1] + 9998 delta[B21,B15,1] <= 9986
 PM[B21,B16,0]: - c[B16,0] + c[B21,0] + 100 delta[B21,B16,0] <= 92
 PM[B21,B16,1]: - c[B16,1] + c[B21,1] + 9998 delta[B21,B16,1] <= 9979
 PM[B21,B17,0]: - c[B17,0] + c[B21,0] + 100 delta[B21,B17,0] <= 91
 PM[B21,B17,1]: - c[B17,1] + c[B21,1] + 10000 delta[B21,B17,1] <= 9989
 PM[B21,B18,0]: - c[B18,0] + c[B21,0] + 100 delta[B21,B18,0] <= 90.5
 PM[B21,B18,1]: - c[B18,1] + c[B21,1] + 9998 delta[B21,B18,1] <= 9987
 PM[B21,B19,0]: - c[B19,0] + c[B21,0] + 100 delta[B21,B19,0] <= 83
 PM[B21,B19,1]: - c[B19,1] + c[B21,1] + 9999 delta[B21,B19,1] <= 9988
 PM[B21,B20,0]: - c[B20,0] + c[B21,0] + 100 delta[B21,B20,0] <= 91
 PM[B21,B20,1]: - c[B20,1] + c[B21,1] + 10000 delta[B21,B20,1] <= 9990
 PM[B21,B22,0]: c[B21,0] - c[B22,0] + 100 delta[B21,B22,0] <= 92
 PM[B21,B22,1]: c[B21,1] - c[B22,1] + 9998 delta[B21,B22,1] <= 9982
 PM[B21,B23,0]: c[B21,0] - c[B23,0] + 100 delta[B21,B23,0] <= 87
 PM[B21,B23,1]: c[B21,1] - c[B23,1] + 10000 delta[B21,B23,1] <= 9992
 PM[B21,B24,0]: c[B21,0] - c[B24,0] + 100 delta[B21,B24,0] <= 94.5
 PM[B21,B24,1]: c[B21,1] - c[B24,1] + 10000 delta[B21,B24,1] <= 9987
 PM[B22,B0,0]: - c[B0,0] + c[B22,0] + 100 delta[B22,B0,0] <= 73
 PM[B22,B0,1]: - c[B0,1] + c[B22,1] + 10000 delta[B22,B0,1] <= 9982
 PM[B22,B1,0]: - c[B1,0] + c[B22,0] + 100 delta[B22,B1,0] <= 89
 PM[B22,B1,1]: - c[B1,1] + c[B22,1] + 10000 delta[B22,B1,1] <= 9980.5
 PM[B22,B2,0]: - c[B2,0] + c[B22,0] + 100 delta[B22,B2,0] <= 90.5
 PM[B22,B2,1]: - c[B2,1] + c[B22,1] + 9996 delta[B22,B2,1] <= 9977.5
 PM[B22,B3,0]: - c[B3,0] + c[B22,0] + 100 delta[B22,B3,0] <= 91
 PM[B22,B3,1]: - c[B3,1] + c[B22,1] + 9993 delta[B22,B3,1] <= 9974
 PM[B22,B4,0]: - c[B4,0] + c[B22,0] + 100 delta[B22,B4,0] <= 86
 PM[B22,B4,1]: - c[B4,1] + c[B22,1] + 10000 delta[B22,B4,1] <= 9982
 PM[B22,B5,0]: - c[B5,0] + c[B22,0] + 100 delta[B22,B5,0] <= 85
 PM[B22,B5,1]: - c[B5,1] + c[B22,1] + 10000 delta[B22,B5,1] <= 9982
 PM[B22,B6,0]: - c[B6,0] + c[B22,0] + 100 delta[B22,B6,0] <= 86
 PM[B22,B6,1]: - c[B6,1] + c[B22,1] + 10000 delta[B22,B6,1] <= 9983
 PM[B22,B7,0]: - c[B7,0] + c[B22,0] + 100 delta[B22,B7,0] <= 67
 PM[B22,B7,1]: - c[B7,1] + c[B22,1] + 9993 delta[B22,B7,1] <= 9971.5
 PM[B22,B8,0]: - c[B8,0] + c[B22,0] + 100 delta[B22,B8,0] <= 84.5
 PM[B22,B8,1]: - c[B8,1] + c[B22,1] + 9992 delta[B22,B8,1] <= 9970
 PM[B22,B9,0]: - c[B9,0] + c[B22,0] + 100 delta[B22,B9,0] <= 78.5
 PM[B22,B9,1]: - c[B9,1] + c[B22,1] + 10000 delta[B22,B9,1] <= 9978
 PM[B22,B10,0]: - c[B10,0] + c[B22,0] + 100 delta[B22,B10,0] <= 91.5
 PM[B22,B10,1]: - c[B10,1] + c[B22,1] + 9999 delta[B22,B10,1] <= 9981.5
 PM[B22,B11,0]: - c[B11,0] + c[B22,0] + 100 delta[B22,B11,0] <= 91
 PM[B22,B11,1]: - c[B11,1] + c[B22,1] + 10000 delta[B22,B11,1] <= 9981.5
 PM[B22,B12,0]: - c[B12,0] + c[B22,0] + 100 delta[B22,B12,0] <= 72
 PM[B22,B12,1]: - c[B12,1] + c[B22,1] + 9992 delta[B22,B12,1] <= 9969
 PM[B22,B13,0]: - c[B13,0] + c[B22,0] + 100 delta[B22,B13,0] <= 85
 PM[B22,B13,1]: - c[B13,1] + c[B22,1] + 9998 delta[B22,B13,1] <= 9978.5
 PM[B22,B14,0]: - c[B14,0] + c[B22,0] + 100 delta[B22,B14,0] <= 79.5
 PM[B22,B14,1]: - c[B14,1] + c[B22,1] + 10000 delta[B22,B14,1] <= 9979.5
 PM[B22,B15,0]: - c[B15,0] + c[B22,0] + 100 delta[B22,B15,0] <= 85.5
 PM[B22,B15,1]: - c[B15,1] + c[B22,1] + 9996 delta[B22,B15,1] <= 9978
 PM[B22,B16,0]: - c[B16,0] + c[B22,0] + 100 delta[B22,B16,0] <= 90
 PM[B22,B16,1]: - c[B16,1] + c[B22,1] + 9992 delta[B22,B16,1] <= 9971
 PM[B22,B17,0]: - c[B17,0] + c[B22,0] + 100 delta[B22,B17,0] <= 89
 PM[B22,B17,1]: - c[B17,1] + c[B22,1] + 10000 delta[B22,B17,1] <= 9981
 PM[B22,B18,0]: - c[B18,0] + c[B22,0] + 100 delta[B22,B18,0] <= 88.5
 PM[B22,B18,1]: - c[B18,1] + c[B22,1] + 9998 delta[B22,B18,1] <= 9979
 PM[B22,B19,0]: - c[B19,0] + c[B22,0] + 100 delta[B22,B19,0] <= 81
 PM[B22,B19,1]: - c[B19,1] + c[B22,1] + 9999 delta[B22,B19,1] <= 9980
 PM[B22,B20,0]: - c[B20,0] + c[B22,0] + 100 delta[B22,B20,0] <= 89
 PM[B22,B20,1]: - c[B20,1] + c[B22,1] + 10000 delta[B22,B20,1] <= 9982
 PM[B22,B21,0]: - c[B21,0] + c[B22,0] + 100 delta[B22,B21,0] <= 92
 PM[B22,B21,1]: - c[B21,1] + c[B22,1] + 9993 delta[B22,B21,1] <= 9976
 PM[B22,B23,0]: c[B22,0] - c[B23,0] + 100 delta[B22,B23,0] <= 85
 PM[B22,B23,1]: c[B22,1] - c[B23,1] + 10000 delta[B22,B23,1] <= 9984
 PM[B22,B24,0]: c[B22,0] - c[B24,0] + 100 delta[B22,B24,0] <= 92.5
 PM[B22,B24,1]: c[B22,1] - c[B24,1] + 10000 delta[B22,B24,1] <= 9979
 PM[B23,B0,0]: - c[B0,0] + c[B23,0] + 95 delta[B23,B0,0] <= 69
 PM[B23,B0,1]: - c[B0,1] + c[B23,1] + 10000 delta[B23,B0,1] <= 9988
 PM[B23,B1,0]: - c[B1,0] + c[B23,0] + 98 delta[B23,B1,0] <= 85
 PM[B23,B1,1]: - c[B1,1] + c[B23,1] + 10000 delta[B23,B1,1] <= 9986.5
 PM[B23,B2,0]: - c[B2,0] + c[B23,0] + 100 delta[B23,B2,0] <= 86.5
 PM[B23,B2,1]: - c[B2,1] + c[B23,1] + 9996 delta[B23,B2,1] <= 9983.5
 PM[B23,B3,0]: - c[B3,0] + c[B23,0] + 100 delta[B23,B3,0] <= 87
 PM[B23,B3,1]: - c[B3,1] + c[B23,1] + 9995 delta[B23,B3,1] <= 9980
 PM[B23,B4,0]: - c[B4,0] + c[B23,0] + 98 delta[B23,B4,0] <= 82
 PM[B23,B4,1]: - c[B4,1] + c[B23,1] + 10000 delta[B23,B4,1] <= 9988
 PM[B23,B5,0]: - c[B5,0] + c[B23,0] + 95 delta[B23,B5,0] <= 81
 PM[B23,B5,1]: - c[B5,1] + c[B23,1] + 10000 delta[B23,B5,1] <= 9988
 PM[B23,B6,0]: - c[B6,0] + c[B23,0] + 97 delta[B23,B6,0] <= 82
 PM[B23,B6,1]: - c[B6,1] + c[B23,1] + 10000 delta[B23,B6,1] <= 9989
 PM[B23,B7,0]: - c[B7,0] + c[B23,0] + 95 delta[B23,B7,0] <= 63
 PM[B23,B7,1]: - c[B7,1] + c[B23,1] + 9995 delta[B23,B7,1] <= 9977.5
 PM[B23,B8,0]: - c[B8,0] + c[B23,0] + 96 delta[B23,B8,0] <= 80.5
 PM[B23,B8,1]: - c[B8,1] + c[B23,1] + 9995 delta[B23,B8,1] <= 9976
 PM[B23,B9,0]: - c[B9,0] + c[B23,0] + 95 delta[B23,B9,0] <= 74.5
 PM[B23,B9,1]: - c[B9,1] + c[B23,1] + 10000 delta[B23,B9,1] <= 9984
 PM[B23,B10,0]: - c[B10,0] + c[B23,0] + 100 delta[B23,B10,0] <= 87.5
 PM[B23,B10,1]: - c[B10,1] + c[B23,1] + 9999 delta[B23,B10,1] <= 9987.5
 PM[B23,B11,0]: - c[B11,0] + c[B23,0] + 100 delta[B23,B11,0] <= 87
 PM[B23,B11,1]: - c[B11,1] + c[B23,1] + 10000 delta[B23,B11,1] <= 9987.5
 PM[B23,B12,0]: - c[B12,0] + c[B23,0] + 95 delta[B23,B12,0] <= 68
 PM[B23,B12,1]: - c[B12,1] + c[B23,1] + 9995 delta[B23,B12,1] <= 9975
 PM[B23,B13,0]: - c[B13,0] + c[B23,0] + 95 delta[B23,B13,0] <= 81
 PM[B23,B13,1]: - c[B13,1] + c[B23,1] + 9998 delta[B23,B13,1] <= 9984.5
 PM[B23,B14,0]: - c[B14,0] + c[B23,0] + 95 delta[B23,B14,0] <= 75.5
 PM[B23,B14,1]: - c[B14,1] + c[B23,1] + 10000 delta[B23,B14,1] <= 9985.5
 PM[B23,B15,0]: - c[B15,0] + c[B23,0] + 100 delta[B23,B15,0] <= 81.5
 PM[B23,B15,1]: - c[B15,1] + c[B23,1] + 9996 delta[B23,B15,1] <= 9984
 PM[B23,B16,0]: - c[B16,0] + c[B23,0] + 100 delta[B23,B16,0] <= 86
 PM[B23,B16,1]: - c[B16,1] + c[B23,1] + 9995 delta[B23,B16,1] <= 9977
 PM[B23,B17,0]: - c[B17,0] + c[B23,0] + 100 delta[B23,B17,0] <= 85
 PM[B23,B17,1]: - c[B17,1] + c[B23,1] + 10000 delta[B23,B17,1] <= 9987
 PM[B23,B18,0]: - c[B18,0] + c[B23,0] + 100 delta[B23,B18,0] <= 84.5
 PM[B23,B18,1]: - c[B18,1] + c[B23,1] + 9998 delta[B23,B18,1] <= 9985
 PM[B23,B19,0]: - c[B19,0] + c[B23,0] + 95 delta[B23,B19,0] <= 77
 PM[B23,B19,1]: - c[B19,1] + c[B23,1] + 9999 delta[B23,B19,1] <= 9986
 PM[B23,B20,0]: - c[B20,0] + c[B23,0] + 100 delta[B23,B20,0] <= 85
 PM[B23,B20,1]: - c[B20,1] + c[B23,1] + 10000 delta[B23,B20,1] <= 9988
 PM[B23,B21,0]: - c[B21,0] + c[B23,0] + 100 delta[B23,B21,0] <= 88
 PM[B23,B21,1]: - c[B21,1] + c[B23,1] + 9995 delta[B23,B21,1] <= 9982
 PM[B23,B22,0]: - c[B22,0] + c[B23,0] + 100 delta[B23,B22,0] <= 86
 PM[B23,B22,1]: - c[B22,1] + c[B23,1] + 9995 delta[B23,B22,1] <= 9980
 PM[B23,B24,0]: c[B23,0] - c[B24,0] + 100 delta[B23,B24,0] <= 88.5
 PM[B23,B24,1]: c[B23,1] - c[B24,1] + 10000 delta[B23,B24,1] <= 9985
 PM[B24,B0,0]: - c[B0,0] + c[B24,0] + 95 delta[B24,B0,0] <= 70.5
 PM[B24,B0,1]: - c[B0,1] + c[B24,1] + 10000 delta[B24,B0,1] <= 9978
 PM[B24,B1,0]: - c[B1,0] + c[B24,0] + 98 delta[B24,B1,0] <= 86.5
 PM[B24,B1,1]: - c[B1,1] + c[B24,1] + 10000 delta[B24,B1,1] <= 9976.5
 PM[B24,B2,0]: - c[B2,0] + c[B24,0] + 100 delta[B24,B2,0] <= 88
 PM[B24,B2,1]: - c[B2,1] + c[B24,1] + 9996 delta[B24,B2,1] <= 9973.5
 PM[B24,B3,0]: - c[B3,0] + c[B24,0] + 100 delta[B24,B3,0] <= 88.5
 PM[B24,B3,1]: - c[B3,1] + c[B24,1] + 9993 delta[B24,B3,1] <= 9970
 PM[B24,B4,0]: - c[B4,0] + c[B24,0] + 98 delta[B24,B4,0] <= 83.5
 PM[B24,B4,1]: - c[B4,1] + c[B24,1] + 10000 delta[B24,B4,1] <= 9978
 PM[B24,B5,0]: - c[B5,0] + c[B24,0] + 95 delta[B24,B5,0] <= 82.5
 PM[B24,B5,1]: - c[B5,1] + c[B24,1] + 10000 delta[B24,B5,1] <= 9978
 PM[B24,B6,0]: - c[B6,0] + c[B24,0] + 97 delta[B24,B6,0] <= 83.5
 PM[B24,B6,1]: - c[B6,1] + c[B24,1] + 10000 delta[B24,B6,1] <= 9979
 PM[B24,B7,0]: - c[B7,0] + c[B24,0] + 95 delta[B24,B7,0] <= 64.5
 PM[B24,B7,1]: - c[B7,1] + c[B24,1] + 9993 delta[B24,B7,1] <= 9967.5
 PM[B24,B8,0]: - c[B8,0] + c[B24,0] + 96 delta[B24,B8,0] <= 82
 PM[B24,B8,1]: - c[B8,1] + c[B24,1] + 9990 delta[B24,B8,1] <= 9966
 PM[B24,B9,0]: - c[B9,0] + c[B24,0] + 95 delta[B24,B9,0] <= 76
 PM[B24,B9,1]: - c[B9,1] + c[B24,1] + 10000 delta[B24,B9,1] <= 9974
 PM[B24,B10,0]: - c[B10,0] + c[B24,0] + 100 delta[B24,B10,0] <= 89
 PM[B24,B10,1]: - c[B10,1] + c[B24,1] + 9999 delta[B24,B10,1] <= 9977.5
 PM[B24,B11,0]: - c[B11,0] + c[B24,0] + 100 delta[B24,B11,0] <= 88.5
 PM[B24,B11,1]: - c[B11,1] + c[B24,1] + 10000 delta[B24,B11,1] <= 9977.5
 PM[B24,B12,0]: - c[B12,0] + c[B24,0] + 95 delta[B24,B12,0] <= 69.5
 PM[B24,B12,1]: - c[B12,1] + c[B24,1] + 9992 delta[B24,B12,1] <= 9965
 PM[B24,B13,0]: - c[B13,0] + c[B24,0] + 95 delta[B24,B13,0] <= 82.5
 PM[B24,B13,1]: - c[B13,1] + c[B24,1] + 9998 delta[B24,B13,1] <= 9974.5
 PM[B24,B14,0]: - c[B14,0] + c[B24,0] + 95 delta[B24,B14,0] <= 77
 PM[B24,B14,1]: - c[B14,1] + c[B24,1] + 10000 delta[B24,B14,1] <= 9975.5
 PM[B24,B15,0]: - c[B15,0] + c[B24,0] + 100 delta[B24,B15,0] <= 83
 PM[B24,B15,1]: - c[B15,1] + c[B24,1] + 9996 delta[B24,B15,1] <= 9974
 PM[B24,B16,0]: - c[B16,0] + c[B24,0] + 100 delta[B24,B16,0] <= 87.5
 PM[B24,B16,1]: - c[B16,1] + c[B24,1] + 9990 delta[B24,B16,1] <= 9967
 PM[B24,B17,0]: - c[B17,0] + c[B24,0] + 100 delta[B24,B17,0] <= 86.5
 PM[B24,B17,1]: - c[B17,1] + c[B24,1] + 10000 delta[B24,B17,1] <= 9977
 PM[B24,B18,0]: - c[B18,0] + c[B24,0] + 100 delta[B24,B18,0] <= 86
 PM[B24,B18,1]: - c[B18,1] + c[B24,1] + 9998 delta[B24,B18,1] <= 9975
 PM[B24,B19,0]: - c[B19,0] + c[B24,0] + 95 delta[B24,B19,0] <= 78.5
 PM[B24,B19,1]: - c[B19,1] + c[B24,1] + 9999 delta[B24,B19,1] <= 9976
 PM[B24,B20,0]: - c[B20,0] + c[B24,0] + 100 delta[B24,B20,0] <= 86.5
 PM[B24,B20,1]: - c[B20,1] + c[B24,1] + 10000 delta[B24,B20,1] <= 9978
 PM[B24,B21,0]: - c[B21,0] + c[B24,0] + 100 delta[B24,B21,0] <= 89.5
 PM[B24,B21,1]: - c[B21,1] + c[B24,1] + 9993 delta[B24,B21,1] <= 9972
 PM[B24,B22,0]: - c[B22,0] + c[B24,0] + 100 delta[B24,B22,0] <= 87.5
 PM[B24,B22,1]: - c[B22,1] + c[B24,1] + 9993 delta[B24,B22,1] <= 9970
 PM[B24,B23,0]: - c[B23,0] + c[B24,0] + 95 delta[B24,B23,0] <= 82.5
 PM[B24,B23,1]: - c[B23,1] + c[B24,1] + 10000 delta[B24,B23,1] <= 9980
 S1[B0,B1]: delta[B0,B1,0] + delta[B0,B1,1] + delta[B1,B0,0]
   + delta[B1,B0,1] = 1
 S1[B0,B2]: delta[B0,B2,0] + delta[B0,B2,1] + delta[B2,B0,0]
   + delta[B2,B0,1] = 1
 S1[B0,B3]: delta[B0,B3,0] + delta[B0,B3,1] + delta[B3,B0,0]
   + delta[B3,B0,1] = 1
 S1[B0,B4]: delta[B0,B4,0] + delta[B0,B4,1] + delta[B4,B0,0]
   + delta[B4,B0,1] = 1
 S1[B0,B5]: delta[B0,B5,0] + delta[B0,B5,1] + delta[B5,B0,0]
   + delta[B5,B0,1] = 1
 S1[B0,B6]: delta[B0,B6,0] + delta[B0,B6,1] + delta[B6,B0,0]
   + delta[B6,B0,1] = 1
 S1[B0,B7]: delta[B0,B7,0] + delta[B0,B7,1] + delta[B7,B0,0]
   + delta[B7,B0,1] = 1
 S1[B0,B8]: delta[B0,B8,0] + delta[B0,B8,1] + delta[B8,B0,0]
   + delta[B8,B0,1] = 1
 S1[B0,B9]: delta[B0,B9,0] + delta[B0,B9,1] + delta[B9,B0,0]
   + delta[B9,B0,1] = 1
 S1[B0,B10]: delta[B0,B10,0] + delta[B0,B10,1] + delta[B10,B0,0]
   + delta[B10,B0,1] = 1
 S1[B0,B11]: delta[B0,B11,0] + delta[B0,B11,1] + delta[B11,B0,0]
   + delta[B11,B0,1] = 1
 S1[B0,B12]: delta[B0,B12,0] + delta[B0,B12,1] + delta[B12,B0,0]
   + delta[B12,B0,1] = 1
 S1[B0,B13]: delta[B0,B13,0] + delta[B0,B13,1] + delta[B13,B0,0]
   + delta[B13,B0,1] = 1
 S1[B0,B14]: delta[B0,B14,0] + delta[B0,B14,1] + delta[B14,B0,0]
   + delta[B14,B0,1] = 1
 S1[B0,B15]: delta[B0,B15,0] + delta[B0,B15,1] + delta[B15,B0,0]
   + delta[B15,B0,1] = 1
 S1[B0,B16]: delta[B0,B16,0] + delta[B0,B16,1] + delta[B16,B0,0]
   + delta[B16,B0,1] = 1
 S1[B0,B17]: delta[B0,B17,0] + delta[B0,B17,1] + delta[B17,B0,0]
   + delta[B17,B0,1] = 1
 S1[B0,B18]: delta[B0,B18,0] + delta[B0,B18,1] + delta[B18,B0,0]
   + delta[B18,B0,1] = 1
 S1[B0,B19]: delta[B0,B19,0] + delta[B0,B19,1] + delta[B19,B0,0]
   + delta[B19,B0,1] = 1
 S1[B0,B20]: delta[B0,B20,0] + delta[B0,B20,1] + delta[B20,B0,0]
   + delta[B20,B0,1] = 1
 S1[B0,B21]: delta[B0,B21,0] + delta[B0,B21,1] + delta[B21,B0,0]
   + delta[B21,B0,1] = 1
 S1[B0,B22]: delta[B0,B22,0] + delta[B0,B22,1] + delta[B22,B0,0]
   + delta[B22,B0,1] = 1
 S1[B0,B23]: delta[B0,B23,0] + delta[B0,B23,1] + delta[B23,B0,0]
   + delta[B23,B0,1] = 1
 S1[B0,B24]: delta[B0,B24,0] + delta[B0,B24,1] + delta[B24,B0,0]
   + delta[B24,B0,1] = 1
 S1[B1,B2]: delta[B1,B2,0] + delta[B1,B2,1] + delta[B2,B1,0]
   + delta[B2,B1,1] = 1
 S1[B1,B3]: delta[B1,B3,0] + delta[B1,B3,1] + delta[B3,B1,0]
   + delta[B3,B1,1] = 1
 S1[B1,B4]: delta[B1,B4,0] + delta[B1,B4,1] + delta[B4,B1,0]
   + delta[B4,B1,1] = 1
 S1[B1,B5]: delta[B1,B5,0] + delta[B1,B5,1] + delta[B5,B1,0]
   + delta[B5,B1,1] = 1
 S1[B1,B6]: delta[B1,B6,0] + delta[B1,B6,1] + delta[B6,B1,0]
   + delta[B6,B1,1] = 1
 S1[B1,B7]: delta[B1,B7,0] + delta[B1,B7,1] + delta[B7,B1,0]
   + delta[B7,B1,1] = 1
 S1[B1,B8]: delta[B1,B8,0] + delta[B1,B8,1] + delta[B8,B1,0]
   + delta[B8,B1,1] = 1
 S1[B1,B9]: delta[B1,B9,0] + delta[B1,B9,1] + delta[B9,B1,0]
   + delta[B9,B1,1] = 1
 S1[B1,B10]: delta[B1,B10,0] + delta[B1,B10,1] + delta[B10,B1,0]
   + delta[B10,B1,1] = 1
 S1[B1,B11]: delta[B1,B11,0] + delta[B1,B11,1] + delta[B11,B1,0]
   + delta[B11,B1,1] = 1
 S1[B1,B12]: delta[B1,B12,0] + delta[B1,B12,1] + delta[B12,B1,0]
   + delta[B12,B1,1] = 1
 S1[B1,B13]: delta[B1,B13,0] + delta[B1,B13,1] + delta[B13,B1,0]
   + delta[B13,B1,1] = 1
 S1[B1,B14]: delta[B1,B14,0] + delta[B1,B14,1] + delta[B14,B1,0]
   + delta[B14,B1,1] = 1
 S1[B1,B15]: delta[B1,B15,0] + delta[B1,B15,1] + delta[B15,B1,0]
   + delta[B15,B1,1] = 1
 S1[B1,B16]: delta[B1,B16,0] + delta[B1,B16,1] + delta[B16,B1,0]
   + delta[B16,B1,1] = 1
 S1[B1,B17]: delta[B1,B17,0] + delta[B1,B17,1] + delta[B17,B1,0]
   + delta[B17,B1,1] = 1
 S1[B1,B18]: delta[B1,B18,0] + delta[B1,B18,1] + delta[B18,B1,0]
   + delta[B18,B1,1] = 1
 S1[B1,B19]: delta[B1,B19,0] + delta[B1,B19,1] + delta[B19,B1,0]
   + delta[B19,B1,1] = 1
 S1[B1,B20]: delta[B1,B20,0] + delta[B1,B20,1] + delta[B20,B1,0]
   + delta[B20,B1,1] = 1
 S1[B1,B21]: delta[B1,B21,0] + delta[B1,B21,1] + delta[B21,B1,0]
   + delta[B21,B1,1] = 1
 S1[B1,B22]: delta[B1,B22,0] + delta[B1,B22,1] + delta[B22,B1,0]
   + delta[B22,B1,1] = 1
 S1[B1,B23]: delta[B1,B23,0] + delta[B1,B23,1] + delta[B23,B1,0]
   + delta[B23,B1,1] = 1
 S1[B1,B24]: delta[B1,B24,0] + delta[B1,B24,1] + delta[B24,B1,0]
   + delta[B24,B1,1] = 1
 S1[B2,B3]: delta[B2,B3,0] + delta[B2,B3,1] + delta[B3,B2,0]
   + delta[B3,B2,1] = 1
 S1[B2,B4]: delta[B2,B4,0] + delta[B2,B4,1] + delta[B4,B2,0]
   + delta[B4,B2,1] = 1
 S1[B2,B5]: delta[B2,B5,0] + delta[B2,B5,1] + delta[B5,B2,0]
   + delta[B5,B2,1] = 1
 S1[B2,B6]: delta[B2,B6,0] + delta[B2,B6,1] + delta[B6,B2,0]
   + delta[B6,B2,1] = 1
 S1[B2,B7]: delta[B2,B7,0] + delta[B2,B7,1] + delta[B7,B2,0]
   + delta[B7,B2,1] = 1
 S1[B2,B8]: delta[B2,B8,0] + delta[B2,B8,1] + delta[B8,B2,0]
   + delta[B8,B2,1] = 1
 S1[B2,B9]: delta[B2,B9,0] + delta[B2,B9,1] + delta[B9,B2,0]
   + delta[B9,B2,1] = 1
 S1[B2,B10]: delta[B2,B10,0] + delta[B2,B10,1] + delta[B10,B2,0]
   + delta[B10,B2,1] = 1
 S1[B2,B11]: delta[B2,B11,0] + delta[B2,B11,1] + delta[B11,B2,0]
   + delta[B11,B2,1] = 1
 S1[B2,B12]: delta[B2,B12,0] + delta[B2,B12,1] + delta[B12,B2,0]
   + delta[B12,B2,1] = 1
 S1[B2,B13]: delta[B2,B13,0] + delta[B2,B13,1] + delta[B13,B2,0]
   + delta[B13,B2,1] = 1
 S1[B2,B14]: delta[B2,B14,0] + delta[B2,B14,1] + delta[B14,B2,0]
   + delta[B14,B2,1] = 1
 S1[B2,B15]: delta[B2,B15,0] + delta[B2,B15,1] + delta[B15,B2,0]
   + delta[B15,B2,1] = 1
 S1[B2,B16]: delta[B2,B16,0] + delta[B2,B16,1] + delta[B16,B2,0]
   + delta[B16,B2,1] = 1
 S1[B2,B17]: delta[B2,B17,0] + delta[B2,B17,1] + delta[B17,B2,0]
   + delta[B17,B2,1] = 1
 S1[B2,B18]: delta[B2,B18,0] + delta[B2,B18,1] + delta[B18,B2,0]
   + delta[B18,B2,1] = 1
 S1[B2,B19]: delta[B2,B19,0] + delta[B2,B19,1] + delta[B19,B2,0]
   + delta[B19,B2,1] = 1
 S1[B2,B20]: delta[B2,B20,0] + delta[B2,B20,1] + delta[B20,B2,0]
   + delta[B20,B2,1] = 1
 S1[B2,B21]: delta[B2,B21,0] + delta[B2,B21,1] + delta[B21,B2,0]
   + delta[B21,B2,1] = 1
 S1[B2,B22]: delta[B2,B22,0] + delta[B2,B22,1] + delta[B22,B2,0]
   + delta[B22,B2,1] = 1
 S1[B2,B23]: delta[B2,B23,0] + delta[B2,B23,1] + delta[B23,B2,0]
   + delta[B23,B2,1] = 1
 S1[B2,B24]: delta[B2,B24,0] + delta[B2,B24,1] + delta[B24,B2,0]
   + delta[B24,B2,1] = 1
 S1[B3,B4]: delta[B3,B4,0] + delta[B3,B4,1] + delta[B4,B3,0]
   + delta[B4,B3,1] = 1
 S1[B3,B5]: delta[B3,B5,0] + delta[B3,B5,1] + delta[B5,B3,0]
   + delta[B5,B3,1] = 1
 S1[B3,B6]: delta[B3,B6,0] + delta[B3,B6,1] + delta[B6,B3,0]
   + delta[B6,B3,1] = 1
 S1[B3,B7]: delta[B3,B7,0] + delta[B3,B7,1] + delta[B7,B3,0]
   + delta[B7,B3,1] = 1
 S1[B3,B8]: delta[B3,B8,0] + delta[B3,B8,1] + delta[B8,B3,0]
   + delta[B8,B3,1] = 1
 S1[B3,B9]: delta[B3,B9,0] + delta[B3,B9,1] + delta[B9,B3,0]
   + delta[B9,B3,1] = 1
 S1[B3,B10]: delta[B3,B10,0] + delta[B3,B10,1] + delta[B10,B3,0]
   + delta[B10,B3,1] = 1
 S1[B3,B11]: delta[B3,B11,0] + delta[B3,B11,1] + delta[B11,B3,0]
   + delta[B11,B3,1] = 1
 S1[B3,B12]: delta[B3,B12,0] + delta[B3,B12,1] + delta[B12,B3,0]
   + delta[B12,B3,1] = 1
 S1[B3,B13]: delta[B3,B13,0] + delta[B3,B13,1] + delta[B13,B3,0]
   + delta[B13,B3,1] = 1
 S1[B3,B14]: delta[B3,B14,0] + delta[B3,B14,1] + delta[B14,B3,0]
   + delta[B14,B3,1] = 1
 S1[B3,B15]: delta[B3,B15,0] + delta[B3,B15,1] + delta[B15,B3,0]
   + delta[B15,B3,1] = 1
 S1[B3,B16]: delta[B3,B16,0] + delta[B3,B16,1] + delta[B16,B3,0]
   + delta[B16,B3,1] = 1
 S1[B3,B17]: delta[B3,B17,0] + delta[B3,B17,1] + delta[B17,B3,0]
   + delta[B17,B3,1] = 1
 S1[B3,B18]: delta[B3,B18,0] + delta[B3,B18,1] + delta[B18,B3,0]
   + delta[B18,B3,1] = 1
 S1[B3,B19]: delta[B3,B19,0] + delta[B3,B19,1] + delta[B19,B3,0]
   + delta[B19,B3,1] = 1
 S1[B3,B20]: delta[B3,B20,0] + delta[B3,B20,1] + delta[B20,B3,0]
   + delta[B20,B3,1] = 1
 S1[B3,B21]: delta[B3,B21,0] + delta[B3,B21,1] + delta[B21,B3,0]
   + delta[B21,B3,1] = 1
 S1[B3,B22]: delta[B3,B22,0] + delta[B3,B22,1] + delta[B22,B3,0]
   + delta[B22,B3,1] = 1
 S1[B3,B23]: delta[B3,B23,0] + delta[B3,B23,1] + delta[B23,B3,0]
   + delta[B23,B3,1] = 1
 S1[B3,B24]: delta[B3,B24,0] + delta[B3,B24,1] + delta[B24,B3,0]
   + delta[B24,B3,1] = 1
 S1[B4,B5]: delta[B4,B5,0] + delta[B4,B5,1] + delta[B5,B4,0]
   + delta[B5,B4,1] = 1
 S1[B4,B6]: delta[B4,B6,0] + delta[B4,B6,1] + delta[B6,B4,0]
   + delta[B6,B4,1] = 1
 S1[B4,B7]: delta[B4,B7,0] + delta[B4,B7,1] + delta[B7,B4,0]
   + delta[B7,B4,1] = 1
 S1[B4,B8]: delta[B4,B8,0] + delta[B4,B8,1] + delta[B8,B4,0]
   + delta[B8,B4,1] = 1
 S1[B4,B9]: delta[B4,B9,0] + delta[B4,B9,1] + delta[B9,B4,0]
   + delta[B9,B4,1] = 1
 S1[B4,B10]: delta[B4,B10,0] + delta[B4,B10,1] + delta[B10,B4,0]
   + delta[B10,B4,1] = 1
 S1[B4,B11]: delta[B4,B11,0] + delta[B4,B11,1] + delta[B11,B4,0]
   + delta[B11,B4,1] = 1
 S1[B4,B12]: delta[B4,B12,0] + delta[B4,B12,1] + delta[B12,B4,0]
   + delta[B12,B4,1] = 1
 S1[B4,B13]: delta[B4,B13,0] + delta[B4,B13,1] + delta[B13,B4,0]
   + delta[B13,B4,1] = 1
 S1[B4,B14]: delta[B4,B14,0] + delta[B4,B14,1] + delta[B14,B4,0]
   + delta[B14,B4,1] = 1
 S1[B4,B15]: delta[B4,B15,0] + delta[B4,B15,1] + delta[B15,B4,0]
   + delta[B15,B4,1] = 1
 S1[B4,B16]: delta[B4,B16,0] + delta[B4,B16,1] + delta[B16,B4,0]
   + delta[B16,B4,1] = 1
 S1[B4,B17]: delta[B4,B17,0] + delta[B4,B17,1] + delta[B17,B4,0]
   + delta[B17,B4,1] = 1
 S1[B4,B18]: delta[B4,B18,0] + delta[B4,B18,1] + delta[B18,B4,0]
   + delta[B18,B4,1] = 1
 S1[B4,B19]: delta[B4,B19,0] + delta[B4,B19,1] + delta[B19,B4,0]
   + delta[B19,B4,1] = 1
 S1[B4,B20]: delta[B4,B20,0] + delta[B4,B20,1] + delta[B20,B4,0]
   + delta[B20,B4,1] = 1
 S1[B4,B21]: delta[B4,B21,0] + delta[B4,B21,1] + delta[B21,B4,0]
   + delta[B21,B4,1] = 1
 S1[B4,B22]: delta[B4,B22,0] + delta[B4,B22,1] + delta[B22,B4,0]
   + delta[B22,B4,1] = 1
 S1[B4,B23]: delta[B4,B23,0] + delta[B4,B23,1] + delta[B23,B4,0]
   + delta[B23,B4,1] = 1
 S1[B4,B24]: delta[B4,B24,0] + delta[B4,B24,1] + delta[B24,B4,0]
   + delta[B24,B4,1] = 1
 S1[B5,B6]: delta[B5,B6,0] + delta[B5,B6,1] + delta[B6,B5,0]
   + delta[B6,B5,1] = 1
 S1[B5,B7]: delta[B5,B7,0] + delta[B5,B7,1] + delta[B7,B5,0]
   + delta[B7,B5,1] = 1
 S1[B5,B8]: delta[B5,B8,0] + delta[B5,B8,1] + delta[B8,B5,0]
   + delta[B8,B5,1] = 1
 S1[B5,B9]: delta[B5,B9,0] + delta[B5,B9,1] + delta[B9,B5,0]
   + delta[B9,B5,1] = 1
 S1[B5,B10]: delta[B5,B10,0] + delta[B5,B10,1] + delta[B10,B5,0]
   + delta[B10,B5,1] = 1
 S1[B5,B11]: delta[B5,B11,0] + delta[B5,B11,1] + delta[B11,B5,0]
   + delta[B11,B5,1] = 1
 S1[B5,B12]: delta[B5,B12,0] + delta[B5,B12,1] + delta[B12,B5,0]
   + delta[B12,B5,1] = 1
 S1[B5,B13]: delta[B5,B13,0] + delta[B5,B13,1] + delta[B13,B5,0]
   + delta[B13,B5,1] = 1
 S1[B5,B14]: delta[B5,B14,0] + delta[B5,B14,1] + delta[B14,B5,0]
   + delta[B14,B5,1] = 1
 S1[B5,B15]: delta[B5,B15,0] + delta[B5,B15,1] + delta[B15,B5,0]
   + delta[B15,B5,1] = 1
 S1[B5,B16]: delta[B5,B16,0] + delta[B5,B16,1] + delta[B16,B5,0]
   + delta[B16,B5,1] = 1
 S1[B5,B17]: delta[B5,B17,0] + delta[B5,B17,1] + delta[B17,B5,0]
   + delta[B17,B5,1] = 1
 S1[B5,B18]: delta[B5,B18,0] + delta[B5,B18,1] + delta[B18,B5,0]
   + delta[B18,B5,1] = 1
 S1[B5,B19]: delta[B5,B19,0] + delta[B5,B19,1] + delta[B19,B5,0]
   + delta[B19,B5,1] = 1
 S1[B5,B20]: delta[B5,B20,0] + delta[B5,B20,1] + delta[B20,B5,0]
   + delta[B20,B5,1] = 1
 S1[B5,B21]: delta[B5,B21,0] + delta[B5,B21,1] + delta[B21,B5,0]
   + delta[B21,B5,1] = 1
 S1[B5,B22]: delta[B5,B22,0] + delta[B5,B22,1] + delta[B22,B5,0]
   + delta[B22,B5,1] = 1
 S1[B5,B23]: delta[B5,B23,0] + delta[B5,B23,1] + delta[B23,B5,0]
   + delta[B23,B5,1] = 1
 S1[B5,B24]: delta[B5,B24,0] + delta[B5,B24,1] + delta[B24,B5,0]
   + delta[B24,B5,1] = 1
 S1[B6,B7]: delta[B6,B7,0] + delta[B6,B7,1] + delta[B7,B6,0]
   + delta[B7,B6,1] = 1
 S1[B6,B8]: delta[B6,B8,0] + delta[B6,B8,1] + delta[B8,B6,0]
   + delta[B8,B6,1] = 1
 S1[B6,B9]: delta[B6,B9,0] + delta[B6,B9,1] + delta[B9,B6,0]
   + delta[B9,B6,1] = 1
 S1[B6,B10]: delta[B6,B10,0] + delta[B6,B10,1] + delta[B10,B6,0]
   + delta[B10,B6,1] = 1
 S1[B6,B11]: delta[B6,B11,0] + delta[B6,B11,1] + delta[B11,B6,0]
   + delta[B11,B6,1] = 1
 S1[B6,B12]: delta[B6,B12,0] + delta[B6,B12,1] + delta[B12,B6,0]
   + delta[B12,B6,1] = 1
 S1[B6,B13]: delta[B6,B13,0] + delta[B6,B13,1] + delta[B13,B6,0]
   + delta[B13,B6,1] = 1
 S1[B6,B14]: delta[B6,B14,0] + delta[B6,B14,1] + delta[B14,B6,0]
   + delta[B14,B6,1] = 1
 S1[B6,B15]: delta[B6,B15,0] + delta[B6,B15,1] + delta[B15,B6,0]
   + delta[B15,B6,1] = 1
 S1[B6,B16]: delta[B6,B16,0] + delta[B6,B16,1] + delta[B16,B6,0]
   + delta[B16,B6,1] = 1
 S1[B6,B17]: delta[B6,B17,0] + delta[B6,B17,1] + delta[B17,B6,0]
   + delta[B17,B6,1] = 1
 S1[B6,B18]: delta[B6,B18,0] + delta[B6,B18,1] + delta[B18,B6,0]
   + delta[B18,B6,1] = 1
 S1[B6,B19]: delta[B6,B19,0] + delta[B6,B19,1] + delta[B19,B6,0]
   + delta[B19,B6,1] = 1
 S1[B6,B20]: delta[B6,B20,0] + delta[B6,B20,1] + delta[B20,B6,0]
   + delta[B20,B6,1] = 1
 S1[B6,B21]: delta[B6,B21,0] + delta[B6,B21,1] + delta[B21,B6,0]
   + delta[B21,B6,1] = 1
 S1[B6,B22]: delta[B6,B22,0] + delta[B6,B22,1] + delta[B22,B6,0]
   + delta[B22,B6,1] = 1
 S1[B6,B23]: delta[B6,B23,0] + delta[B6,B23,1] + delta[B23,B6,0]
   + delta[B23,B6,1] = 1
 S1[B6,B24]: delta[B6,B24,0] + delta[B6,B24,1] + delta[B24,B6,0]
   + delta[B24,B6,1] = 1
 S1[B7,B8]: delta[B7,B8,0] + delta[B7,B8,1] + delta[B8,B7,0]
   + delta[B8,B7,1] = 1
 S1[B7,B9]: delta[B7,B9,0] + delta[B7,B9,1] + delta[B9,B7,0]
   + delta[B9,B7,1] = 1
 S1[B7,B10]: delta[B7,B10,0] + delta[B7,B10,1] + delta[B10,B7,0]
   + delta[B10,B7,1] = 1
 S1[B7,B11]: delta[B7,B11,0] + delta[B7,B11,1] + delta[B11,B7,0]
   + delta[B11,B7,1] = 1
 S1[B7,B12]: delta[B7,B12,0] + delta[B7,B12,1] + delta[B12,B7,0]
   + delta[B12,B7,1] = 1
 S1[B7,B13]: delta[B7,B13,0] + delta[B7,B13,1] + delta[B13,B7,0]
   + delta[B13,B7,1] = 1
 S1[B7,B14]: delta[B7,B14,0] + delta[B7,B14,1] + delta[B14,B7,0]
   + delta[B14,B7,1] = 1
 S1[B7,B15]: delta[B7,B15,0] + delta[B7,B15,1] + delta[B15,B7,0]
   + delta[B15,B7,1] = 1
 S1[B7,B16]: delta[B7,B16,0] + delta[B7,B16,1] + delta[B16,B7,0]
   + delta[B16,B7,1] = 1
 S1[B7,B17]: delta[B7,B17,0] + delta[B7,B17,1] + delta[B17,B7,0]
   + delta[B17,B7,1] = 1
 S1[B7,B18]: delta[B7,B18,0] + delta[B7,B18,1] + delta[B18,B7,0]
   + delta[B18,B7,1] = 1
 S1[B7,B19]: delta[B7,B19,0] + delta[B7,B19,1] + delta[B19,B7,0]
   + delta[B19,B7,1] = 1
 S1[B7,B20]: delta[B7,B20,0] + delta[B7,B20,1] + delta[B20,B7,0]
   + delta[B20,B7,1] = 1
 S1[B7,B21]: delta[B7,B21,0] + delta[B7,B21,1] + delta[B21,B7,0]
   + delta[B21,B7,1] = 1
 S1[B7,B22]: delta[B7,B22,0] + delta[B7,B22,1] + delta[B22,B7,0]
   + delta[B22,B7,1] = 1
 S1[B7,B23]: delta[B7,B23,0] + delta[B7,B23,1] + delta[B23,B7,0]
   + delta[B23,B7,1] = 1
 S1[B7,B24]: delta[B7,B24,0] + delta[B7,B24,1] + delta[B24,B7,0]
   + delta[B24,B7,1] = 1
 S1[B8,B9]: delta[B8,B9,0] + delta[B8,B9,1] + delta[B9,B8,0]
   + delta[B9,B8,1] = 1
 S1[B8,B10]: delta[B8,B10,0] + delta[B8,B10,1] + delta[B10,B8,0]
   + delta[B10,B8,1] = 1
 S1[B8,B11]: delta[B8,B11,0] + delta[B8,B11,1] + delta[B11,B8,0]
   + delta[B11,B8,1] = 1
 S1[B8,B12]: delta[B8,B12,0] + delta[B8,B12,1] + delta[B12,B8,0]
   + delta[B12,B8,1] = 1
 S1[B8,B13]: delta[B8,B13,0] + delta[B8,B13,1] + delta[B13,B8,0]
   + delta[B13,B8,1] = 1
 S1[B8,B14]: delta[B8,B14,0] + delta[B8,B14,1] + delta[B14,B8,0]
   + delta[B14,B8,1] = 1
 S1[B8,B15]: delta[B8,B15,0] + delta[B8,B15,1] + delta[B15,B8,0]
   + delta[B15,B8,1] = 1
 S1[B8,B16]: delta[B8,B16,0] + delta[B8,B16,1] + delta[B16,B8,0]
   + delta[B16,B8,1] = 1
 S1[B8,B17]: delta[B8,B17,0] + delta[B8,B17,1] + delta[B17,B8,0]
   + delta[B17,B8,1] = 1
 S1[B8,B18]: delta[B8,B18,0] + delta[B8,B18,1] + delta[B18,B8,0]
   + delta[B18,B8,1] = 1
 S1[B8,B19]: delta[B8,B19,0] + delta[B8,B19,1] + delta[B19,B8,0]
   + delta[B19,B8,1] = 1
 S1[B8,B20]: delta[B8,B20,0] + delta[B8,B20,1] + delta[B20,B8,0]
   + delta[B20,B8,1] = 1
 S1[B8,B21]: delta[B8,B21,0] + delta[B8,B21,1] + delta[B21,B8,0]
   + delta[B21,B8,1] = 1
 S1[B8,B22]: delta[B8,B22,0] + delta[B8,B22,1] + delta[B22,B8,0]
   + delta[B22,B8,1] = 1
 S1[B8,B23]: delta[B8,B23,0] + delta[B8,B23,1] + delta[B23,B8,0]
   + delta[B23,B8,1] = 1
 S1[B8,B24]: delta[B8,B24,0] + delta[B8,B24,1] + delta[B24,B8,0]
   + delta[B24,B8,1] = 1
 S1[B9,B10]: delta[B9,B10,0] + delta[B9,B10,1] + delta[B10,B9,0]
   + delta[B10,B9,1] = 1
 S1[B9,B11]: delta[B9,B11,0] + delta[B9,B11,1] + delta[B11,B9,0]
   + delta[B11,B9,1] = 1
 S1[B9,B12]: delta[B9,B12,0] + delta[B9,B12,1] + delta[B12,B9,0]
   + delta[B12,B9,1] = 1
 S1[B9,B13]: delta[B9,B13,0] + delta[B9,B13,1] + delta[B13,B9,0]
   + delta[B13,B9,1] = 1
 S1[B9,B14]: delta[B9,B14,0] + delta[B9,B14,1] + delta[B14,B9,0]
   + delta[B14,B9,1] = 1
 S1[B9,B15]: delta[B9,B15,0] + delta[B9,B15,1] + delta[B15,B9,0]
   + delta[B15,B9,1] = 1
 S1[B9,B16]: delta[B9,B16,0] + delta[B9,B16,1] + delta[B16,B9,0]
   + delta[B16,B9,1] = 1
 S1[B9,B17]: delta[B9,B17,0] + delta[B9,B17,1] + delta[B17,B9,0]
   + delta[B17,B9,1] = 1
 S1[B9,B18]: delta[B9,B18,0] + delta[B9,B18,1] + delta[B18,B9,0]
   + delta[B18,B9,1] = 1
 S1[B9,B19]: delta[B9,B19,0] + delta[B9,B19,1] + delta[B19,B9,0]
   + delta[B19,B9,1] = 1
 S1[B9,B20]: delta[B9,B20,0] + delta[B9,B20,1] + delta[B20,B9,0]
   + delta[B20,B9,1] = 1
 S1[B9,B21]: delta[B9,B21,0] + delta[B9,B21,1] + delta[B21,B9,0]
   + delta[B21,B9,1] = 1
 S1[B9,B22]: delta[B9,B22,0] + delta[B9,B22,1] + delta[B22,B9,0]
   + delta[B22,B9,1] = 1
 S1[B9,B23]: delta[B9,B23,0] + delta[B9,B23,1] + delta[B23,B9,0]
   + delta[B23,B9,1] = 1
 S1[B9,B24]: delta[B9,B24,0] + delta[B9,B24,1] + delta[B24,B9,0]
   + delta[B24,B9,1] = 1
 S1[B10,B11]: delta[B10,B11,0] + delta[B10,B11,1] + delta[B11,B10,0]
   + delta[B11,B10,1] = 1
 S1[B10,B12]: delta[B10,B12,0] + delta[B10,B12,1] + delta[B12,B10,0]
   + delta[B12,B10,1] = 1
 S1[B10,B13]: delta[B10,B13,0] + delta[B10,B13,1] + delta[B13,B10,0]
   + delta[B13,B10,1] = 1
 S1[B10,B14]: delta[B10,B14,0] + delta[B10,B14,1] + delta[B14,B10,0]
   + delta[B14,B10,1] = 1
 S1[B10,B15]: delta[B10,B15,0] + delta[B10,B15,1] + delta[B15,B10,0]
   + delta[B15,B10,1] = 1
 S1[B10,B16]: delta[B10,B16,0] + delta[B10,B16,1] + delta[B16,B10,0]
   + delta[B16,B10,1] = 1
 S1[B10,B17]: delta[B10,B17,0] + delta[B10,B17,1] + delta[B17,B10,0]
   + delta[B17,B10,1] = 1
 S1[B10,B18]: delta[B10,B18,0] + delta[B10,B18,1] + delta[B18,B10,0]
   + delta[B18,B10,1] = 1
 S1[B10,B19]: delta[B10,B19,0] + delta[B10,B19,1] + delta[B19,B10,0]
   + delta[B19,B10,1] = 1
 S1[B10,B20]: delta[B10,B20,0] + delta[B10,B20,1] + delta[B20,B10,0]
   + delta[B20,B10,1] = 1
 S1[B10,B21]: delta[B10,B21,0] + delta[B10,B21,1] + delta[B21,B10,0]
   + delta[B21,B10,1] = 1
 S1[B10,B22]: delta[B10,B22,0] + delta[B10,B22,1] + delta[B22,B10,0]
   + delta[B22,B10,1] = 1
 S1[B10,B23]: delta[B10,B23,0] + delta[B10,B23,1] + delta[B23,B10,0]
   + delta[B23,B10,1] = 1
 S1[B10,B24]: delta[B10,B24,0] + delta[B10,B24,1] + delta[B24,B10,0]
   + delta[B24,B10,1] = 1
 S1[B11,B12]: delta[B11,B12,0] + delta[B11,B12,1] + delta[B12,B11,0]
   + delta[B12,B11,1] = 1
 S1[B11,B13]: delta[B11,B13,0] + delta[B11,B13,1] + delta[B13,B11,0]
   + delta[B13,B11,1] = 1
 S1[B11,B14]: delta[B11,B14,0] + delta[B11,B14,1] + delta[B14,B11,0]
   + delta[B14,B11,1] = 1
 S1[B11,B15]: delta[B11,B15,0] + delta[B11,B15,1] + delta[B15,B11,0]
   + delta[B15,B11,1] = 1
 S1[B11,B16]: delta[B11,B16,0] + delta[B11,B16,1] + delta[B16,B11,0]
   + delta[B16,B11,1] = 1
 S1[B11,B17]: delta[B11,B17,0] + delta[B11,B17,1] + delta[B17,B11,0]
   + delta[B17,B11,1] = 1
 S1[B11,B18]: delta[B11,B18,0] + delta[B11,B18,1] + delta[B18,B11,0]
   + delta[B18,B11,1] = 1
 S1[B11,B19]: delta[B11,B19,0] + delta[B11,B19,1] + delta[B19,B11,0]
   + delta[B19,B11,1] = 1
 S1[B11,B20]: delta[B11,B20,0] + delta[B11,B20,1] + delta[B20,B11,0]
   + delta[B20,B11,1] = 1
 S1[B11,B21]: delta[B11,B21,0] + delta[B11,B21,1] + delta[B21,B11,0]
   + delta[B21,B11,1] = 1
 S1[B11,B22]: delta[B11,B22,0] + delta[B11,B22,1] + delta[B22,B11,0]
   + delta[B22,B11,1] = 1
 S1[B11,B23]: delta[B11,B23,0] + delta[B11,B23,1] + delta[B23,B11,0]
   + delta[B23,B11,1] = 1
 S1[B11,B24]: delta[B11,B24,0] + delta[B11,B24,1] + delta[B24,B11,0]
   + delta[B24,B11,1] = 1
 S1[B12,B13]: delta[B12,B13,0] + delta[B12,B13,1] + delta[B13,B12,0]
   + delta[B13,B12,1] = 1
 S1[B12,B14]: delta[B12,B14,0] + delta[B12,B14,1] + delta[B14,B12,0]
   + delta[B14,B12,1] = 1
 S1[B12,B15]: delta[B12,B15,0] + delta[B12,B15,1] + delta[B15,B12,0]
   + delta[B15,B12,1] = 1
 S1[B12,B16]: delta[B12,B16,0] + delta[B12,B16,1] + delta[B16,B12,0]
   + delta[B16,B12,1] = 1
 S1[B12,B17]: delta[B12,B17,0] + delta[B12,B17,1] + delta[B17,B12,0]
   + delta[B17,B12,1] = 1
 S1[B12,B18]: delta[B12,B18,0] + delta[B12,B18,1] + delta[B18,B12,0]
   + delta[B18,B12,1] = 1
 S1[B12,B19]: delta[B12,B19,0] + delta[B12,B19,1] + delta[B19,B12,0]
   + delta[B19,B12,1] = 1
 S1[B12,B20]: delta[B12,B20,0] + delta[B12,B20,1] + delta[B20,B12,0]
   + delta[B20,B12,1] = 1
 S1[B12,B21]: delta[B12,B21,0] + delta[B12,B21,1] + delta[B21,B12,0]
   + delta[B21,B12,1] = 1
 S1[B12,B22]: delta[B12,B22,0] + delta[B12,B22,1] + delta[B22,B12,0]
   + delta[B22,B12,1] = 1
 S1[B12,B23]: delta[B12,B23,0] + delta[B12,B23,1] + delta[B23,B12,0]
   + delta[B23,B12,1] = 1
 S1[B12,B24]: delta[B12,B24,0] + delta[B12,B24,1] + delta[B24,B12,0]
   + delta[B24,B12,1] = 1
 S1[B13,B14]: delta[B13,B14,0] + delta[B13,B14,1] + delta[B14,B13,0]
   + delta[B14,B13,1] = 1
 S1[B13,B15]: delta[B13,B15,0] + delta[B13,B15,1] + delta[B15,B13,0]
   + delta[B15,B13,1] = 1
 S1[B13,B16]: delta[B13,B16,0] + delta[B13,B16,1] + delta[B16,B13,0]
   + delta[B16,B13,1] = 1
 S1[B13,B17]: delta[B13,B17,0] + delta[B13,B17,1] + delta[B17,B13,0]
   + delta[B17,B13,1] = 1
 S1[B13,B18]: delta[B13,B18,0] + delta[B13,B18,1] + delta[B18,B13,0]
   + delta[B18,B13,1] = 1
 S1[B13,B19]: delta[B13,B19,0] + delta[B13,B19,1] + delta[B19,B13,0]
   + delta[B19,B13,1] = 1
 S1[B13,B20]: delta[B13,B20,0] + delta[B13,B20,1] + delta[B20,B13,0]
   + delta[B20,B13,1] = 1
 S1[B13,B21]: delta[B13,B21,0] + delta[B13,B21,1] + delta[B21,B13,0]
   + delta[B21,B13,1] = 1
 S1[B13,B22]: delta[B13,B22,0] + delta[B13,B22,1] + delta[B22,B13,0]
   + delta[B22,B13,1] = 1
 S1[B13,B23]: delta[B13,B23,0] + delta[B13,B23,1] + delta[B23,B13,0]
   + delta[B23,B13,1] = 1
 S1[B13,B24]: delta[B13,B24,0] + delta[B13,B24,1] + delta[B24,B13,0]
   + delta[B24,B13,1] = 1
 S1[B14,B15]: delta[B14,B15,0] + delta[B14,B15,1] + delta[B15,B14,0]
   + delta[B15,B14,1] = 1
 S1[B14,B16]: delta[B14,B16,0] + delta[B14,B16,1] + delta[B16,B14,0]
   + delta[B16,B14,1] = 1
 S1[B14,B17]: delta[B14,B17,0] + delta[B14,B17,1] + delta[B17,B14,0]
   + delta[B17,B14,1] = 1
 S1[B14,B18]: delta[B14,B18,0] + delta[B14,B18,1] + delta[B18,B14,0]
   + delta[B18,B14,1] = 1
 S1[B14,B19]: delta[B14,B19,0] + delta[B14,B19,1] + delta[B19,B14,0]
   + delta[B19,B14,1] = 1
 S1[B14,B20]: delta[B14,B20,0] + delta[B14,B20,1] + delta[B20,B14,0]
   + delta[B20,B14,1] = 1
 S1[B14,B21]: delta[B14,B21,0] + delta[B14,B21,1] + delta[B21,B14,0]
   + delta[B21,B14,1] = 1
 S1[B14,B22]: delta[B14,B22,0] + delta[B14,B22,1] + delta[B22,B14,0]
   + delta[B22,B14,1] = 1
 S1[B14,B23]: delta[B14,B23,0] + delta[B14,B23,1] + delta[B23,B14,0]
   + delta[B23,B14,1] = 1
 S1[B14,B24]: delta[B14,B24,0] + delta[B14,B24,1] + delta[B24,B14,0]
   + delta[B24,B14,1] = 1
 S1[B15,B16]: delta[B15,B16,0] + delta[B15,B16,1] + delta[B16,B15,0]
   + delta[B16,B15,1] = 1
 S1[B15,B17]: delta[B15,B17,0] + delta[B15,B17,1] + delta[B17,B15,0]
   + delta[B17,B15,1] = 1
 S1[B15,B18]: delta[B15,B18,0] + delta[B15,B18,1] + delta[B18,B15,0]
   + delta[B18,B15,1] = 1
 S1[B15,B19]: delta[B15,B19,0] + delta[B15,B19,1] + delta[B19,B15,0]
   + delta[B19,B15,1] = 1
 S1[B15,B20]: delta[B15,B20,0] + delta[B15,B20,1] + delta[B20,B15,0]
   + delta[B20,B15,1] = 1
 S1[B15,B21]: delta[B15,B21,0] + delta[B15,B21,1] + delta[B21,B15,0]
   + delta[B21,B15,1] = 1
 S1[B15,B22]: delta[B15,B22,0] + delta[B15,B22,1] + delta[B22,B15,0]
   + delta[B22,B15,1] = 1
 S1[B15,B23]: delta[B15,B23,0] + delta[B15,B23,1] + delta[B23,B15,0]
   + delta[B23,B15,1] = 1
 S1[B15,B24]: delta[B15,B24,0] + delta[B15,B24,1] + delta[B24,B15,0]
   + delta[B24,B15,1] = 1
 S1[B16,B17]: delta[B16,B17,0] + delta[B16,B17,1] + delta[B17,B16,0]
   + delta[B17,B16,1] = 1
 S1[B16,B18]: delta[B16,B18,0] + delta[B16,B18,1] + delta[B18,B16,0]
   + delta[B18,B16,1] = 1
 S1[B16,B19]: delta[B16,B19,0] + delta[B16,B19,1] + delta[B19,B16,0]
   + delta[B19,B16,1] = 1
 S1[B16,B20]: delta[B16,B20,0] + delta[B16,B20,1] + delta[B20,B16,0]
   + delta[B20,B16,1] = 1
 S1[B16,B21]: delta[B16,B21,0] + delta[B16,B21,1] + delta[B21,B16,0]
   + delta[B21,B16,1] = 1
 S1[B16,B22]: delta[B16,B22,0] + delta[B16,B22,1] + delta[B22,B16,0]
   + delta[B22,B16,1] = 1
 S1[B16,B23]: delta[B16,B23,0] + delta[B16,B23,1] + delta[B23,B16,0]
   + delta[B23,B16,1] = 1
 S1[B16,B24]: delta[B16,B24,0] + delta[B16,B24,1] + delta[B24,B16,0]
   + delta[B24,B16,1] = 1
 S1[B17,B18]: delta[B17,B18,0] + delta[B17,B18,1] + delta[B18,B17,0]
   + delta[B18,B17,1] = 1
 S1[B17,B19]: delta[B17,B19,0] + delta[B17,B19,1] + delta[B19,B17,0]
   + delta[B19,B17,1] = 1
 S1[B17,B20]: delta[B17,B20,0] + delta[B17,B20,1] + delta[B20,B17,0]
   + delta[B20,B17,1] = 1
 S1[B17,B21]: delta[B17,B21,0] + delta[B17,B21,1] + delta[B21,B17,0]
   + delta[B21,B17,1] = 1
 S1[B17,B22]: delta[B17,B22,0] + delta[B17,B22,1] + delta[B22,B17,0]
   + delta[B22,B17,1] = 1
 S1[B17,B23]: delta[B17,B23,0] + delta[B17,B23,1] + delta[B23,B17,0]
   + delta[B23,B17,1] = 1
 S1[B17,B24]: delta[B17,B24,0] + delta[B17,B24,1] + delta[B24,B17,0]
   + delta[B24,B17,1] = 1
 S1[B18,B19]: delta[B18,B19,0] + delta[B18,B19,1] + delta[B19,B18,0]
   + delta[B19,B18,1] = 1
 S1[B18,B20]: delta[B18,B20,0] + delta[B18,B20,1] + delta[B20,B18,0]
   + delta[B20,B18,1] = 1
 S1[B18,B21]: delta[B18,B21,0] + delta[B18,B21,1] + delta[B21,B18,0]
   + delta[B21,B18,1] = 1
 S1[B18,B22]: delta[B18,B22,0] + delta[B18,B22,1] + delta[B22,B18,0]
   + delta[B22,B18,1] = 1
 S1[B18,B23]: delta[B18,B23,0] + delta[B18,B23,1] + delta[B23,B18,0]
   + delta[B23,B18,1] = 1
 S1[B18,B24]: delta[B18,B24,0] + delta[B18,B24,1] + delta[B24,B18,0]
   + delta[B24,B18,1] = 1
 S1[B19,B20]: delta[B19,B20,0] + delta[B19,B20,1] + delta[B20,B19,0]
   + delta[B20,B19,1] = 1
 S1[B19,B21]: delta[B19,B21,0] + delta[B19,B21,1] + delta[B21,B19,0]
   + delta[B21,B19,1] = 1
 S1[B19,B22]: delta[B19,B22,0] + delta[B19,B22,1] + delta[B22,B19,0]
   + delta[B22,B19,1] = 1
 S1[B19,B23]: delta[B19,B23,0] + delta[B19,B23,1] + delta[B23,B19,0]
   + delta[B23,B19,1] = 1
 S1[B19,B24]: delta[B19,B24,0] + delta[B19,B24,1] + delta[B24,B19,0]
   + delta[B24,B19,1] = 1
 S1[B20,B21]: delta[B20,B21,0] + delta[B20,B21,1] + delta[B21,B20,0]
   + delta[B21,B20,1] = 1
 S1[B20,B22]: delta[B20,B22,0] + delta[B20,B22,1] + delta[B22,B20,0]
   + delta[B22,B20,1] = 1
 S1[B20,B23]: delta[B20,B23,0] + delta[B20,B23,1] + delta[B23,B20,0]
   + delta[B23,B20,1] = 1
 S1[B20,B24]: delta[B20,B24,0] + delta[B20,B24,1] + delta[B24,B20,0]
   + delta[B24,B20,1] = 1
 S1[B21,B22]: delta[B21,B22,0] + delta[B21,B22,1] + delta[B22,B21,0]
   + delta[B22,B21,1] = 1
 S1[B21,B23]: delta[B21,B23,0] + delta[B21,B23,1] + delta[B23,B21,0]
   + delta[B23,B21,1] = 1
 S1[B21,B24]: delta[B21,B24,0] + delta[B21,B24,1] + delta[B24,B21,0]
   + delta[B24,B21,1] = 1
 S1[B22,B23]: delta[B22,B23,0] + delta[B22,B23,1] + delta[B23,B22,0]
   + delta[B23,B22,1] = 1
 S1[B22,B24]: delta[B22,B24,0] + delta[B22,B24,1] + delta[B24,B22,0]
   + delta[B24,B22,1] = 1
 S1[B23,B24]: delta[B23,B24,0] + delta[B23,B24,1] + delta[B24,B23,0]
   + delta[B24,B23,1] = 1
Bounds
 22 <= c[B0,0] <= 87
 4.5 <= c[B0,1] <= 9990.5
 6 <= c[B1,0] <= 93
 6 <= c[B1,1] <= 9994
 4.5 <= c[B2,0] <= 95.5
 9 <= c[B2,1] <= 9993
 4 <= c[B3,0] <= 95
 12.5 <= c[B3,1] <= 9994.5
 9 <= c[B4,0] <= 79
 4.5 <= c[B4,1] <= 9995.5
 10 <= c[B5,0] <= 96
 4.5 <= c[B5,1] <= 9991.5
 9 <= c[B6,0] <= 94
 3.5 <= c[B6,1] <= 9991.5
 28 <= c[B7,0] <= 90
 15 <= c[B7,1] <= 9979
 10.5 <= c[B8,0] <= 93.5
 16.5 <= c[B8,1] <= 9993.5
 16.5 <= c[B9,0] <= 94.5
 8.5 <= c[B9,1] <= 9990.5
 3.5 <= c[B10,0] <= 96.5
 5 <= c[B10,1] <= 9996
 4 <= c[B11,0] <= 94
 5 <= c[B11,1] <= 9995
 23 <= c[B12,0] <= 92
 17.5 <= c[B12,1] <= 9990.5
 10 <= c[B13,0] <= 89
 8 <= c[B13,1] <= 9993
 15.5 <= c[B14,0] <= 83.5
 7 <= c[B14,1] <= 9993
 9.5 <= c[B15,0] <= 75.5
 8.5 <= c[B15,1] <= 9995.5
 5 <= c[B16,0] <= 93
 15.5 <= c[B16,1] <= 9983.5
 6 <= c[B17,0] <= 83
 5.5 <= c[B17,1] <= 9994.5
 6.5 <= c[B18,0] <= 93.5
 7.5 <= c[B18,1] <= 9994.5
 14 <= c[B19,0] <= 92
 6.5 <= c[B19,1] <= 9994.5
 6 <= c[B20,0] <= 93
 4.5 <= c[B20,1] <= 9994.5
 3 <= c[B21,0] <= 97
 10.5 <= c[B21,1] <= 9994.5
 5 <= c[B22,0] <= 95
 12.5 <= c[B22,1] <= 9986.5
 10 <= c[B23,0] <= 91
 2.5 <= c[B23,1] <= 9992.5
 2.5 <= c[B24,0] <= 92.5
 7.5 <= c[B24,1] <= 9982.5
 28 <= h <= 414
Binaries
 delta[B0,B1,0] delta[B0,B1,1] delta[B0,B2,0] delta[B0,B2,1] delta[B0,B3,0]
 delta[B0,B3,1] delta[B0,B4,0] delta[B0,B4,1] delta[B0,B5,0] delta[B0,B5,1]
 delta[B0,B6,0] delta[B0,B6,1] delta[B0,B7,0] delta[B0,B7,1] delta[B0,B8,0]
 delta[B0,B8,1] delta[B0,B9,0] delta[B0,B9,1] delta[B0,B10,0]
 delta[B0,B10,1] delta[B0,B11,0] delta[B0,B11,1] delta[B0,B12,0]
 delta[B0,B12,1] delta[B0,B13,0] delta[B0,B13,1] delta[B0,B14,0]
 delta[B0,B14,1] delta[B0,B15,0] delta[B0,B15,1] delta[B0,B16,0]
 delta[B0,B16,1] delta[B0,B17,0] delta[B0,B17,1] delta[B0,B18,0]
 delta[B0,B18,1] delta[B0,B19,0] delta[B0,B19,1] delta[B0,B20,0]
 delta[B0,B20,1] delta[B0,B21,0] delta[B0,B21,1] delta[B0,B22,0]
 delta[B0,B22,1] delta[B0,B23,0] delta[B0,B23,1] delta[B0,B24,0]
 delta[B0,B24,1] delta[B1,B0,0] delta[B1,B0,1] delta[B1,B2,0]
 delta[B1,B2,1] delta[B1,B3,0] delta[B1,B3,1] delta[B1,B4,0] delta[B1,B4,1]
 delta[B1,B5,0] delta[B1,B5,1] delta[B1,B6,0] delta[B1,B6,1] delta[B1,B7,0]
 delta[B1,B7,1] delta[B1,B8,0] delta[B1,B8,1] delta[B1,B9,0] delta[B1,B9,1]
 delta[B1,B10,0] delta[B1,B10,1] delta[B1,B11,0] delta[B1,B11,1]
 delta[B1,B12,0] delta[B1,B12,1] delta[B1,B13,0] delta[B1,B13,1]
 delta[B1,B14,0] delta[B1,B14,1] delta[B1,B15,0] delta[B1,B15,1]
 delta[B1,B16,0] delta[B1,B16,1] delta[B1,B17,0] delta[B1,B17,1]
 delta[B1,B18,0] delta[B1,B18,1] delta[B1,B19,0] delta[B1,B19,1]
 delta[B1,B20,0] delta[B1,B20,1] delta[B1,B21,0] delta[B1,B21,1]
 delta[B1,B22,0] delta[B1,B22,1] delta[B1,B23,0] delta[B1,B23,1]
 delta[B1,B24,0] delta[B1,B24,1] delta[B2,B0,0] delta[B2,B0,1]
 delta[B2,B1,0] delta[B2,B1,1] delta[B2,B3,0] delta[B2,B3,1] delta[B2,B4,0]
 delta[B2,B4,1] delta[B2,B5,0] delta[B2,B5,1] delta[B2,B6,0] delta[B2,B6,1]
 delta[B2,B7,0] delta[B2,B7,1] delta[B2,B8,0] delta[B2,B8,1] delta[B2,B9,0]
 delta[B2,B9,1] delta[B2,B10,0] delta[B2,B10,1] delta[B2,B11,0]
 delta[B2,B11,1] delta[B2,B12,0] delta[B2,B12,1] delta[B2,B13,0]
 delta[B2,B13,1] delta[B2,B14,0] delta[B2,B14,1] delta[B2,B15,0]
 delta[B2,B15,1] delta[B2,B16,0] delta[B2,B16,1] delta[B2,B17,0]
 delta[B2,B17,1] delta[B2,B18,0] delta[B2,B18,1] delta[B2,B19,0]
 delta[B2,B19,1] delta[B2,B20,0] delta[B2,B20,1] delta[B2,B21,0]
 delta[B2,B21,1] delta[B2,B22,0] delta[B2,B22,1] delta[B2,B23,0]
 delta[B2,B23,1] delta[B2,B24,0] delta[B2,B24,1] delta[B3,B0,0]
 delta[B3,B0,1] delta[B3,B1,0] delta[B3,B1,1] delta[B3,B2,0] delta[B3,B2,1]
 delta[B3,B4,0] delta[B3,B4,1] delta[B3,B5,0] delta[B3,B5,1] delta[B3,B6,0]
 delta[B3,B6,1] delta[B3,B7,0] delta[B3,B7,1] delta[B3,B8,0] delta[B3,B8,1]
 delta[B3,B9,0] delta[B3,B9,1] delta[B3,B10,0] delta[B3,B10,1]
 delta[B3,B11,0] delta[B3,B11,1] delta[B3,B12,0] delta[B3,B12,1]
 delta[B3,B13,0] delta[B3,B13,1] delta[B3,B14,0] delta[B3,B14,1]
 delta[B3,B15,0] delta[B3,B15,1] delta[B3,B16,0] delta[B3,B16,1]
 delta[B3,B17,0] delta[B3,B17,1] delta[B3,B18,0] delta[B3,B18,1]
 delta[B3,B19,0] delta[B3,B19,1] delta[B3,B20,0] delta[B3,B20,1]
 delta[B3,B21,0] delta[B3,B21,1] delta[B3,B22,0] delta[B3,B22,1]
 delta[B3,B23,0] delta[B3,B23,1] delta[B3,B24,0] delta[B3,B24,1]
 delta[B4,B0,0] delta[B4,B0,1] delta[B4,B1,0] delta[B4,B1,1] delta[B4,B2,0]
 delta[B4,B2,1] delta[B4,B3,0] delta[B4,B3,1] delta[B4,B5,0] delta[B4,B5,1]
 delta[B4,B6,0] delta[B4,B6,1] delta[B4,B7,0] delta[B4,B7,1] delta[B4,B8,0]
 delta[B4,B8,1] delta[B4,B9,0] delta[B4,B9,1] delta[B4,B10,0]
 delta[B4,B10,1] delta[B4,B11,0] delta[B4,B11,1] delta[B4,B12,0]
 delta[B4,B12,1] delta[B4,B13,0] delta[B4,B13,1] delta[B4,B14,0]
 delta[B4,B14,1] delta[B4,B15,0] delta[B4,B15,1] delta[B4,B16,0]
 delta[B4,B16,1] delta[B4,B17,0] delta[B4,B17,1] delta[B4,B18,0]
 delta[B4,B18,1] delta[B4,B19,0] delta[B4,B19,1] delta[B4,B20,0]
 delta[B4,B20,1] delta[B4,B21,0] delta[B4,B21,1] delta[B4,B22,0]
 delta[B4,B22,1] delta[B4,B23,0] delta[B4,B23,1] delta[B4,B24,0]
 delta[B4,B24,1] delta[B5,B0,0] delta[B5,B0,1] delta[B5,B1,0]
 delta[B5,B1,1] delta[B5,B2,0] delta[B5,B2,1] delta[B5,B3,0] delta[B5,B3,1]
 delta[B5,B4,0] delta[B5,B4,1] delta[B5,B6,0] delta[B5,B6,1] delta[B5,B7,0]
 delta[B5,B7,1] delta[B5,B8,0] delta[B5,B8,1] delta[B5,B9,0] delta[B5,B9,1]
 delta[B5,B10,0] delta[B5,B10,1] delta[B5,B11,0] delta[B5,B11,1]
 delta[B5,B12,0] delta[B5,B12,1] delta[B5,B13,0] delta[B5,B13,1]
 delta[B5,B14,0] delta[B5,B14,1] delta[B5,B15,0] delta[B5,B15,1]
 delta[B5,B16,0] delta[B5,B16,1] delta[B5,B17,0] delta[B5,B17,1]
 delta[B5,B18,0] delta[B5,B18,1] delta[B5,B19,0] delta[B5,B19,1]
 delta[B5,B20,0] delta[B5,B20,1] delta[B5,B21,0] delta[B5,B21,1]
 delta[B5,B22,0] delta[B5,B22,1] delta[B5,B23,0] delta[B5,B23,1]
 delta[B5,B24,0] delta[B5,B24,1] delta[B6,B0,0] delta[B6,B0,1]
 delta[B6,B1,0] delta[B6,B1,1] delta[B6,B2,0] delta[B6,B2,1] delta[B6,B3,0]
 delta[B6,B3,1] delta[B6,B4,0] delta[B6,B4,1] delta[B6,B5,0] delta[B6,B5,1]
 delta[B6,B7,0] delta[B6,B7,1] delta[B6,B8,0] delta[B6,B8,1] delta[B6,B9,0]
 delta[B6,B9,1] delta[B6,B10,0] delta[B6,B10,1] delta[B6,B11,0]
 delta[B6,B11,1] delta[B6,B12,0] delta[B6,B12,1] delta[B6,B13,0]
 delta[B6,B13,1] delta[B6,B14,0] delta[B6,B14,1] delta[B6,B15,0]
 delta[B6,B15,1] delta[B6,B16,0] delta[B6,B16,1] delta[B6,B17,0]
 delta[B6,B17,1] delta[B6,B18,0] delta[B6,B18,1] delta[B6,B19,0]
 delta[B6,B19,1] delta[B6,B20,0] delta[B6,B20,1] delta[B6,B21,0]
 delta[B6,B21,1] delta[B6,B22,0] delta[B6,B22,1] delta[B6,B23,0]
 delta[B6,B23,1] delta[B6,B24,0] delta[B6,B24,1] delta[B7,B0,0]
 delta[B7,B0,1] delta[B7,B1,0] delta[B7,B1,1] delta[B7,B2,0] delta[B7,B2,1]
 delta[B7,B3,0] delta[B7,B3,1] delta[B7,B4,0] delta[B7,B4,1] delta[B7,B5,0]
 delta[B7,B5,1] delta[B7,B6,0] delta[B7,B6,1] delta[B7,B8,0] delta[B7,B8,1]
 delta[B7,B9,0] delta[B7,B9,1] delta[B7,B10,0] delta[B7,B10,1]
 delta[B7,B11,0] delta[B7,B11,1] delta[B7,B12,0] delta[B7,B12,1]
 delta[B7,B13,0] delta[B7,B13,1] delta[B7,B14,0] delta[B7,B14,1]
 delta[B7,B15,0] delta[B7,B15,1] delta[B7,B16,0] delta[B7,B16,1]
 delta[B7,B17,0] delta[B7,B17,1] delta[B7,B18,0] delta[B7,B18,1]
 delta[B7,B19,0] delta[B7,B19,1] delta[B7,B20,0] delta[B7,B20,1]
 delta[B7,B21,0] delta[B7,B21,1] delta[B7,B22,0] delta[B7,B22,1]
 delta[B7,B23,0] delta[B7,B23,1] delta[B7,B24,0] delta[B7,B24,1]
 delta[B8,B0,0] delta[B8,B0,1] delta[B8,B1,0] delta[B8,B1,1] delta[B8,B2,0]
 delta[B8,B2,1] delta[B8,B3,0] delta[B8,B3,1] delta[B8,B4,0] delta[B8,B4,1]
 delta[B8,B5,0] delta[B8,B5,1] delta[B8,B6,0] delta[B8,B6,1] delta[B8,B7,0]
 delta[B8,B7,1] delta[B8,B9,0] delta[B8,B9,1] delta[B8,B10,0]
 delta[B8,B10,1] delta[B8,B11,0] delta[B8,B11,1] delta[B8,B12,0]
 delta[B8,B12,1] delta[B8,B13,0] delta[B8,B13,1] delta[B8,B14,0]
 delta[B8,B14,1] delta[B8,B15,0] delta[B8,B15,1] delta[B8,B16,0]
 delta[B8,B16,1] delta[B8,B17,0] delta[B8,B17,1] delta[B8,B18,0]
 delta[B8,B18,1] delta[B8,B19,0] delta[B8,B19,1] delta[B8,B20,0]
 delta[B8,B20,1] delta[B8,B21,0] delta[B8,B21,1] delta[B8,B22,0]
 delta[B8,B22,1] delta[B8,B23,0] delta[B8,B23,1] delta[B8,B24,0]
 delta[B8,B24,1] delta[B9,B0,0] delta[B9,B0,1] delta[B9,B1,0]
 delta[B9,B1,1] delta[B9,B2,0] delta[B9,B2,1] delta[B9,B3,0] delta[B9,B3,1]
 delta[B9,B4,0] delta[B9,B4,1] delta[B9,B5,0] delta[B9,B5,1] delta[B9,B6,0]
 delta[B9,B6,1] delta[B9,B7,0] delta[B9,B7,1] delta[B9,B8,0] delta[B9,B8,1]
 delta[B9,B10,0] delta[B9,B10,1] delta[B9,B11,0] delta[B9,B11,1]
 delta[B9,B12,0] delta[B9,B12,1] delta[B9,B13,0] delta[B9,B13,1]
 delta[B9,B14,0] delta[B9,B14,1] delta[B9,B15,0] delta[B9,B15,1]
 delta[B9,B16,0] delta[B9,B16,1] delta[B9,B17,0] delta[B9,B17,1]
 delta[B9,B18,0] delta[B9,B18,1] delta[B9,B19,0] delta[B9,B19,1]
 delta[B9,B20,0] delta[B9,B20,1] delta[B9,B21,0] delta[B9,B21,1]
 delta[B9,B22,0] delta[B9,B22,1] delta[B9,B23,0] delta[B9,B23,1]
 delta[B9,B24,0] delta[B9,B24,1] delta[B10,B0,0] delta[B10,B0,1]
 delta[B10,B1,0] delta[B10,B1,1] delta[B10,B2,0] delta[B10,B2,1]
 delta[B10,B3,0] delta[B10,B3,1] delta[B10,B4,0] delta[B10,B4,1]
 delta[B10,B5,0] delta[B10,B5,1] delta[B10,B6,0] delta[B10,B6,1]
 delta[B10,B7,0] delta[B10,B7,1] delta[B10,B8,0] delta[B10,B8,1]
 delta[B10,B9,0] delta[B10,B9,1] delta[B10,B11,0] delta[B10,B11,1]
 delta[B10,B12,0] delta[B10,B12,1] delta[B10,B13,0] delta[B10,B13,1]
 delta[B10,B14,0] delta[B10,B14,1] delta[B10,B15,0] delta[B10,B15,1]
 delta[B10,B16,0] delta[B10,B16,1] delta[B10,B17,0] delta[B10,B17,1]
 delta[B10,B18,0] delta[B10,B18,1] delta[B10,B19,0] delta[B10,B19,1]
 delta[B10,B20,0] delta[B10,B20,1] delta[B10,B21,0] delta[B10,B21,1]
 delta[B10,B22,0] delta[B10,B22,1] delta[B10,B23,0] delta[B10,B23,1]
 delta[B10,B24,0] delta[B10,B24,1] delta[B11,B0,0] delta[B11,B0,1]
 delta[B11,B1,0] delta[B11,B1,1] delta[B11,B2,0] delta[B11,B2,1]
 delta[B11,B3,0] delta[B11,B3,1] delta[B11,B4,0] delta[B11,B4,1]
 delta[B11,B5,0] delta[B11,B5,1] delta[B11,B6,0] delta[B11,B6,1]
 delta[B11,B7,0] delta[B11,B7,1] delta[B11,B8,0] delta[B11,B8,1]
 delta[B11,B9,0] delta[B11,B9,1] delta[B11,B10,0] delta[B11,B10,1]
 delta[B11,B12,0] delta[B11,B12,1] delta[B11,B13,0] delta[B11,B13,1]
 delta[B11,B14,0] delta[B11,B14,1] delta[B11,B15,0] delta[B11,B15,1]
 delta[B11,B16,0] delta[B11,B16,1] delta[B11,B17,0] delta[B11,B17,1]
 delta[B11,B18,0] delta[B11,B18,1] delta[B11,B19,0] delta[B11,B19,1]
 delta[B11,B20,0] delta[B11,B20,1] delta[B11,B21,0] delta[B11,B21,1]
 delta[B11,B22,0] delta[B11,B22,1] delta[B11,B23,0] delta[B11,B23,1]
 delta[B11,B24,0] delta[B11,B24,1] delta[B12,B0,0] delta[B12,B0,1]
 delta[B12,B1,0] delta[B12,B1,1] delta[B12,B2,0] delta[B12,B2,1]
 delta[B12,B3,0] delta[B12,B3,1] delta[B12,B4,0] delta[B12,B4,1]
 delta[B12,B5,0] delta[B12,B5,1] delta[B12,B6,0] delta[B12,B6,1]
 delta[B12,B7,0] delta[B12,B7,1] delta[B12,B8,0] delta[B12,B8,1]
 delta[B12,B9,0] delta[B12,B9,1] delta[B12,B10,0] delta[B12,B10,1]
 delta[B12,B11,0] delta[B12,B11,1] delta[B12,B13,0] delta[B12,B13,1]
 delta[B12,B14,0] delta[B12,B14,1] delta[B12,B15,0] delta[B12,B15,1]
 delta[B12,B16,0] delta[B12,B16,1] delta[B12,B17,0] delta[B12,B17,1]
 delta[B12,B18,0] delta[B12,B18,1] delta[B12,B19,0] delta[B12,B19,1]
 delta[B12,B20,0] delta[B12,B20,1] delta[B12,B21,0] delta[B12,B21,1]
 delta[B12,B22,0] delta[B12,B22,1] delta[B12,B23,0] delta[B12,B23,1]
 delta[B12,B24,0] delta[B12,B24,1] delta[B13,B0,0] delta[B13,B0,1]
 delta[B13,B1,0] delta[B13,B1,1] delta[B13,B2,0] delta[B13,B2,1]
 delta[B13,B3,0] delta[B13,B3,1] delta[B13,B4,0] delta[B13,B4,1]
 delta[B13,B5,0] delta[B13,B5,1] delta[B13,B6,0] delta[B13,B6,1]
 delta[B13,B7,0] delta[B13,B7,1] delta[B13,B8,0] delta[B13,B8,1]
 delta[B13,B9,0] delta[B13,B9,1] delta[B13,B10,0] delta[B13,B10,1]
 delta[B13,B11,0] delta[B13,B11,1] delta[B13,B12,0] delta[B13,B12,1]
 delta[B13,B14,0] delta[B13,B14,1] delta[B13,B15,0] delta[B13,B15,1]
 delta[B13,B16,0] delta[B13,B16,1] delta[B13,B17,0] delta[B13,B17,1]
 delta[B13,B18,0] delta[B13,B18,1] delta[B13,B19,0] delta[B13,B19,1]
 delta[B13,B20,0] delta[B13,B20,1] delta[B13,B21,0] delta[B13,B21,1]
 delta[B13,B22,0] delta[B13,B22,1] delta[B13,B23,0] delta[B13,B23,1]
 delta[B13,B24,0] delta[B13,B24,1] delta[B14,B0,0] delta[B14,B0,1]
 delta[B14,B1,0] delta[B14,B1,1] delta[B14,B2,0] delta[B14,B2,1]
 delta[B14,B3,0] delta[B14,B3,1] delta[B14,B4,0] delta[B14,B4,1]
 delta[B14,B5,0] delta[B14,B5,1] delta[B14,B6,0] delta[B14,B6,1]
 delta[B14,B7,0] delta[B14,B7,1] delta[B14,B8,0] delta[B14,B8,1]
 delta[B14,B9,0] delta[B14,B9,1] delta[B14,B10,0] delta[B14,B10,1]
 delta[B14,B11,0] delta[B14,B11,1] delta[B14,B12,0] delta[B14,B12,1]
 delta[B14,B13,0] delta[B14,B13,1] delta[B14,B15,0] delta[B14,B15,1]
 delta[B14,B16,0] delta[B14,B16,1] delta[B14,B17,0] delta[B14,B17,1]
 delta[B14,B18,0] delta[B14,B18,1] delta[B14,B19,0] delta[B14,B19,1]
 delta[B14,B20,0] delta[B14,B20,1] delta[B14,B21,0] delta[B14,B21,1]
 delta[B14,B22,0] delta[B14,B22,1] delta[B14,B23,0] delta[B14,B23,1]
 delta[B14,B24,0] delta[B14,B24,1] delta[B15,B0,0] delta[B15,B0,1]
 delta[B15,B1,0] delta[B15,B1,1] delta[B15,B2,0] delta[B15,B2,1]
 delta[B15,B3,0] delta[B15,B3,1] delta[B15,B4,0] delta[B15,B4,1]
 delta[B15,B5,0] delta[B15,B5,1] delta[B15,B6,0] delta[B15,B6,1]
 delta[B15,B7,0] delta[B15,B7,1] delta[B15,B8,0] delta[B15,B8,1]
 delta[B15,B9,0] delta[B15,B9,1] delta[B15,B10,0] delta[B15,B10,1]
 delta[B15,B11,0] delta[B15,B11,1] delta[B15,B12,0] delta[B15,B12,1]
 delta[B15,B13,0] delta[B15,B13,1] delta[B15,B14,0] delta[B15,B14,1]
 delta[B15,B16,0] delta[B15,B16,1] delta[B15,B17,0] delta[B15,B17,1]
 delta[B15,B18,0] delta[B15,B18,1] delta[B15,B19,0] delta[B15,B19,1]
 delta[B15,B20,0] delta[B15,B20,1] delta[B15,B21,0] delta[B15,B21,1]
 delta[B15,B22,0] delta[B15,B22,1] delta[B15,B23,0] delta[B15,B23,1]
 delta[B15,B24,0] delta[B15,B24,1] delta[B16,B0,0] delta[B16,B0,1]
 delta[B16,B1,0] delta[B16,B1,1] delta[B16,B2,0] delta[B16,B2,1]
 delta[B16,B3,0] delta[B16,B3,1] delta[B16,B4,0] delta[B16,B4,1]
 delta[B16,B5,0] delta[B16,B5,1] delta[B16,B6,0] delta[B16,B6,1]
 delta[B16,B7,0] delta[B16,B7,1] delta[B16,B8,0] delta[B16,B8,1]
 delta[B16,B9,0] delta[B16,B9,1] delta[B16,B10,0] delta[B16,B10,1]
 delta[B16,B11,0] delta[B16,B11,1] delta[B16,B12,0] delta[B16,B12,1]
 delta[B16,B13,0] delta[B16,B13,1] delta[B16,B14,0] delta[B16,B14,1]
 delta[B16,B15,0] delta[B16,B15,1] delta[B16,B17,0] delta[B16,B17,1]
 delta[B16,B18,0] delta[B16,B18,1] delta[B16,B19,0] delta[B16,B19,1]
 delta[B16,B20,0] delta[B16,B20,1] delta[B16,B21,0] delta[B16,B21,1]
 delta[B16,B22,0] delta[B16,B22,1] delta[B16,B23,0] delta[B16,B23,1]
 delta[B16,B24,0] delta[B16,B24,1] delta[B17,B0,0] delta[B17,B0,1]
 delta[B17,B1,0] delta[B17,B1,1] delta[B17,B2,0] delta[B17,B2,1]
 delta[B17,B3,0] delta[B17,B3,1] delta[B17,B4,0] delta[B17,B4,1]
 delta[B17,B5,0] delta[B17,B5,1] delta[B17,B6,0] delta[B17,B6,1]
 delta[B17,B7,0] delta[B17,B7,1] delta[B17,B8,0] delta[B17,B8,1]
 delta[B17,B9,0] delta[B17,B9,1] delta[B17,B10,0] delta[B17,B10,1]
 delta[B17,B11,0] delta[B17,B11,1] delta[B17,B12,0] delta[B17,B12,1]
 delta[B17,B13,0] delta[B17,B13,1] delta[B17,B14,0] delta[B17,B14,1]
 delta[B17,B15,0] delta[B17,B15,1] delta[B17,B16,0] delta[B17,B16,1]
 delta[B17,B18,0] delta[B17,B18,1] delta[B17,B19,0] delta[B17,B19,1]
 delta[B17,B20,0] delta[B17,B20,1] delta[B17,B21,0] delta[B17,B21,1]
 delta[B17,B22,0] delta[B17,B22,1] delta[B17,B23,0] delta[B17,B23,1]
 delta[B17,B24,0] delta[B17,B24,1] delta[B18,B0,0] delta[B18,B0,1]
 delta[B18,B1,0] delta[B18,B1,1] delta[B18,B2,0] delta[B18,B2,1]
 delta[B18,B3,0] delta[B18,B3,1] delta[B18,B4,0] delta[B18,B4,1]
 delta[B18,B5,0] delta[B18,B5,1] delta[B18,B6,0] delta[B18,B6,1]
 delta[B18,B7,0] delta[B18,B7,1] delta[B18,B8,0] delta[B18,B8,1]
 delta[B18,B9,0] delta[B18,B9,1] delta[B18,B10,0] delta[B18,B10,1]
 delta[B18,B11,0] delta[B18,B11,1] delta[B18,B12,0] delta[B18,B12,1]
 delta[B18,B13,0] delta[B18,B13,1] delta[B18,B14,0] delta[B18,B14,1]
 delta[B18,B15,0] delta[B18,B15,1] delta[B18,B16,0] delta[B18,B16,1]
 delta[B18,B17,0] delta[B18,B17,1] delta[B18,B19,0] delta[B18,B19,1]
 delta[B18,B20,0] delta[B18,B20,1] delta[B18,B21,0] delta[B18,B21,1]
 delta[B18,B22,0] delta[B18,B22,1] delta[B18,B23,0] delta[B18,B23,1]
 delta[B18,B24,0] delta[B18,B24,1] delta[B19,B0,0] delta[B19,B0,1]
 delta[B19,B1,0] delta[B19,B1,1] delta[B19,B2,0] delta[B19,B2,1]
 delta[B19,B3,0] delta[B19,B3,1] delta[B19,B4,0] delta[B19,B4,1]
 delta[B19,B5,0] delta[B19,B5,1] delta[B19,B6,0] delta[B19,B6,1]
 delta[B19,B7,0] delta[B19,B7,1] delta[B19,B8,0] delta[B19,B8,1]
 delta[B19,B9,0] delta[B19,B9,1] delta[B19,B10,0] delta[B19,B10,1]
 delta[B19,B11,0] delta[B19,B11,1] delta[B19,B12,0] delta[B19,B12,1]
 delta[B19,B13,0] delta[B19,B13,1] delta[B19,B14,0] delta[B19,B14,1]
 delta[B19,B15,0] delta[B19,B15,1] delta[B19,B16,0] delta[B19,B16,1]
 delta[B19,B17,0] delta[B19,B17,1] delta[B19,B18,0] delta[B19,B18,1]
 delta[B19,B20,0] delta[B19,B20,1] delta[B19,B21,0] delta[B19,B21,1]
 delta[B19,B22,0] delta[B19,B22,1] delta[B19,B23,0] delta[B19,B23,1]
 delta[B19,B24,0] delta[B19,B24,1] delta[B20,B0,0] delta[B20,B0,1]
 delta[B20,B1,0] delta[B20,B1,1] delta[B20,B2,0] delta[B20,B2,1]
 delta[B20,B3,0] delta[B20,B3,1] delta[B20,B4,0] delta[B20,B4,1]
 delta[B20,B5,0] delta[B20,B5,1] delta[B20,B6,0] delta[B20,B6,1]
 delta[B20,B7,0] delta[B20,B7,1] delta[B20,B8,0] delta[B20,B8,1]
 delta[B20,B9,0] delta[B20,B9,1] delta[B20,B10,0] delta[B20,B10,1]
 delta[B20,B11,0] delta[B20,B11,1] delta[B20,B12,0] delta[B20,B12,1]
 delta[B20,B13,0] delta[B20,B13,1] delta[B20,B14,0] delta[B20,B14,1]
 delta[B20,B15,0] delta[B20,B15,1] delta[B20,B16,0] delta[B20,B16,1]
 delta[B20,B17,0] delta[B20,B17,1] delta[B20,B18,0] delta[B20,B18,1]
 delta[B20,B19,0] delta[B20,B19,1] delta[B20,B21,0] delta[B20,B21,1]
 delta[B20,B22,0] delta[B20,B22,1] delta[B20,B23,0] delta[B20,B23,1]
 delta[B20,B24,0] delta[B20,B24,1] delta[B21,B0,0] delta[B21,B0,1]
 delta[B21,B1,0] delta[B21,B1,1] delta[B21,B2,0] delta[B21,B2,1]
 delta[B21,B3,0] delta[B21,B3,1] delta[B21,B4,0] delta[B21,B4,1]
 delta[B21,B5,0] delta[B21,B5,1] delta[B21,B6,0] delta[B21,B6,1]
 delta[B21,B7,0] delta[B21,B7,1] delta[B21,B8,0] delta[B21,B8,1]
 delta[B21,B9,0] delta[B21,B9,1] delta[B21,B10,0] delta[B21,B10,1]
 delta[B21,B11,0] delta[B21,B11,1] delta[B21,B12,0] delta[B21,B12,1]
 delta[B21,B13,0] delta[B21,B13,1] delta[B21,B14,0] delta[B21,B14,1]
 delta[B21,B15,0] delta[B21,B15,1] delta[B21,B16,0] delta[B21,B16,1]
 delta[B21,B17,0] delta[B21,B17,1] delta[B21,B18,0] delta[B21,B18,1]
 delta[B21,B19,0] delta[B21,B19,1] delta[B21,B20,0] delta[B21,B20,1]
 delta[B21,B22,0] delta[B21,B22,1] delta[B21,B23,0] delta[B21,B23,1]
 delta[B21,B24,0] delta[B21,B24,1] delta[B22,B0,0] delta[B22,B0,1]
 delta[B22,B1,0] delta[B22,B1,1] delta[B22,B2,0] delta[B22,B2,1]
 delta[B22,B3,0] delta[B22,B3,1] delta[B22,B4,0] delta[B22,B4,1]
 delta[B22,B5,0] delta[B22,B5,1] delta[B22,B6,0] delta[B22,B6,1]
 delta[B22,B7,0] delta[B22,B7,1] delta[B22,B8,0] delta[B22,B8,1]
 delta[B22,B9,0] delta[B22,B9,1] delta[B22,B10,0] delta[B22,B10,1]
 delta[B22,B11,0] delta[B22,B11,1] delta[B22,B12,0] delta[B22,B12,1]
 delta[B22,B13,0] delta[B22,B13,1] delta[B22,B14,0] delta[B22,B14,1]
 delta[B22,B15,0] delta[B22,B15,1] delta[B22,B16,0] delta[B22,B16,1]
 delta[B22,B17,0] delta[B22,B17,1] delta[B22,B18,0] delta[B22,B18,1]
 delta[B22,B19,0] delta[B22,B19,1] delta[B22,B20,0] delta[B22,B20,1]
 delta[B22,B21,0] delta[B22,B21,1] delta[B22,B23,0] delta[B22,B23,1]
 delta[B22,B24,0] delta[B22,B24,1] delta[B23,B0,0] delta[B23,B0,1]
 delta[B23,B1,0] delta[B23,B1,1] delta[B23,B2,0] delta[B23,B2,1]
 delta[B23,B3,0] delta[B23,B3,1] delta[B23,B4,0] delta[B23,B4,1]
 delta[B23,B5,0] delta[B23,B5,1] delta[B23,B6,0] delta[B23,B6,1]
 delta[B23,B7,0] delta[B23,B7,1] delta[B23,B8,0] delta[B23,B8,1]
 delta[B23,B9,0] delta[B23,B9,1] delta[B23,B10,0] delta[B23,B10,1]
 delta[B23,B11,0] delta[B23,B11,1] delta[B23,B12,0] delta[B23,B12,1]
 delta[B23,B13,0] delta[B23,B13,1] delta[B23,B14,0] delta[B23,B14,1]
 delta[B23,B15,0] delta[B23,B15,1] delta[B23,B16,0] delta[B23,B16,1]
 delta[B23,B17,0] delta[B23,B17,1] delta[B23,B18,0] delta[B23,B18,1]
 delta[B23,B19,0] delta[B23,B19,1] delta[B23,B20,0] delta[B23,B20,1]
 delta[B23,B21,0] delta[B23,B21,1] delta[B23,B22,0] delta[B23,B22,1]
 delta[B23,B24,0] delta[B23,B24,1] delta[B24,B0,0] delta[B24,B0,1]
 delta[B24,B1,0] delta[B24,B1,1] delta[B24,B2,0] delta[B24,B2,1]
 delta[B24,B3,0] delta[B24,B3,1] delta[B24,B4,0] delta[B24,B4,1]
 delta[B24,B5,0] delta[B24,B5,1] delta[B24,B6,0] delta[B24,B6,1]
 delta[B24,B7,0] delta[B24,B7,1] delta[B24,B8,0] delta[B24,B8,1]
 delta[B24,B9,0] delta[B24,B9,1] delta[B24,B10,0] delta[B24,B10,1]
 delta[B24,B11,0] delta[B24,B11,1] delta[B24,B12,0] delta[B24,B12,1]
 delta[B24,B13,0] delta[B24,B13,1] delta[B24,B14,0] delta[B24,B14,1]
 delta[B24,B15,0] delta[B24,B15,1] delta[B24,B16,0] delta[B24,B16,1]
 delta[B24,B17,0] delta[B24,B17,1] delta[B24,B18,0] delta[B24,B18,1]
 delta[B24,B19,0] delta[B24,B19,1] delta[B24,B20,0] delta[B24,B20,1]
 delta[B24,B21,0] delta[B24,B21,1] delta[B24,B22,0] delta[B24,B22,1]
 delta[B24,B23,0] delta[B24,B23,1]
End
