* Signature: 0xd9d8a764cbbd36dc
NAME SBL-111-StripPacking-15-3
ROWS
 N  OBJ
 G  c0      
 G  c1      
 G  c2      
 G  c3      
 G  c4      
 G  c5      
 G  c6      
 G  c7      
 G  c8      
 G  c9      
 G  c10     
 G  c11     
 G  c12     
 G  c13     
 G  c14     
 G  c15     
 G  c16     
 G  c17     
 G  c18     
 G  c19     
 G  c20     
 G  c21     
 G  c22     
 G  c23     
 G  c24     
 G  c25     
 G  c26     
 G  c27     
 G  c28     
 G  c29     
 G  c30     
 G  c31     
 G  c32     
 G  c33     
 G  c34     
 G  c35     
 G  c36     
 G  c37     
 G  c38     
 G  c39     
 G  c40     
 G  c41     
 G  c42     
 G  c43     
 G  c44     
 G  c45     
 G  c46     
 G  c47     
 G  c48     
 G  c49     
 G  c50     
 G  c51     
 G  c52     
 G  c53     
 G  c54     
 G  c55     
 G  c56     
 G  c57     
 G  c58     
 G  c59     
 G  c60     
 G  c61     
 G  c62     
 G  c63     
 G  c64     
 G  c65     
 G  c66     
 G  c67     
 G  c68     
 G  c69     
 G  c70     
 G  c71     
 G  c72     
 G  c73     
 G  c74     
 G  c75     
 G  c76     
 G  c77     
 G  c78     
 G  c79     
 G  c80     
 G  c81     
 G  c82     
 G  c83     
 G  c84     
 G  c85     
 G  c86     
 G  c87     
 G  c88     
 G  c89     
 G  c90     
 G  c91     
 G  c92     
 G  c93     
 G  c94     
 G  c95     
 G  c96     
 G  c97     
 G  c98     
 G  c99     
 G  c100    
 G  c101    
 G  c102    
 G  c103    
 G  c104    
 G  c105    
 G  c106    
 G  c107    
 G  c108    
 G  c109    
 G  c110    
 G  c111    
 G  c112    
 G  c113    
 G  c114    
 G  c115    
 G  c116    
 G  c117    
 G  c118    
 G  c119    
 G  c120    
 G  c121    
 G  c122    
 G  c123    
 G  c124    
 G  c125    
 G  c126    
 G  c127    
 G  c128    
 G  c129    
 G  c130    
 G  c131    
 G  c132    
 G  c133    
 G  c134    
 G  c135    
 G  c136    
 G  c137    
 G  c138    
 G  c139    
 G  c140    
 G  c141    
 G  c142    
 G  c143    
 G  c144    
 G  c145    
 G  c146    
 G  c147    
 G  c148    
 G  c149    
 G  c150    
 G  c151    
 G  c152    
 G  c153    
 G  c154    
 G  c155    
 G  c156    
 G  c157    
 G  c158    
 G  c159    
 G  c160    
 G  c161    
 G  c162    
 G  c163    
 G  c164    
 G  c165    
 G  c166    
 G  c167    
 G  c168    
 G  c169    
 G  c170    
 G  c171    
 G  c172    
 G  c173    
 G  c174    
 G  c175    
 G  c176    
 G  c177    
 G  c178    
 G  c179    
 G  c180    
 G  c181    
 G  c182    
 G  c183    
 G  c184    
 G  c185    
 G  c186    
 G  c187    
 G  c188    
 G  c189    
 G  c190    
 G  c191    
 G  c192    
 G  c193    
 G  c194    
 G  c195    
 G  c196    
 G  c197    
 G  c198    
 G  c199    
 G  c200    
 G  c201    
 G  c202    
 G  c203    
 G  c204    
 G  c205    
 G  c206    
 G  c207    
 G  c208    
 G  c209    
 G  c210    
 G  c211    
 G  c212    
 G  c213    
 G  c214    
 G  c215    
 G  c216    
 G  c217    
 G  c218    
 G  c219    
 G  c220    
 G  c221    
 G  c222    
 G  c223    
 G  c224    
 G  c225    
 G  c226    
 G  c227    
 G  c228    
 G  c229    
 G  c230    
 G  c231    
 G  c232    
 G  c233    
 G  c234    
 G  c235    
 G  c236    
 G  c237    
 G  c238    
 G  c239    
 G  c240    
 G  c241    
 G  c242    
 G  c243    
 G  c244    
 G  c245    
 G  c246    
 G  c247    
 G  c248    
 G  c249    
 G  c250    
 G  c251    
 G  c252    
 G  c253    
 G  c254    
 G  c255    
 G  c256    
 G  c257    
 G  c258    
 G  c259    
 G  c260    
 G  c261    
 G  c262    
 G  c263    
 G  c264    
 G  c265    
 G  c266    
 G  c267    
 G  c268    
 G  c269    
 G  c270    
 G  c271    
 G  c272    
 G  c273    
 G  c274    
 G  c275    
 G  c276    
 G  c277    
 G  c278    
 G  c279    
 G  c280    
 G  c281    
 G  c282    
 G  c283    
 G  c284    
 G  c285    
 G  c286    
 G  c287    
 G  c288    
 G  c289    
 G  c290    
 G  c291    
 G  c292    
 G  c293    
 G  c294    
 G  c295    
 G  c296    
 G  c297    
 G  c298    
 G  c299    
 G  c300    
 G  c301    
 G  c302    
 G  c303    
 G  c304    
 G  c305    
 G  c306    
 G  c307    
 G  c308    
 G  c309    
 G  c310    
 G  c311    
 G  c312    
 G  c313    
 G  c314    
 G  c315    
 G  c316    
 G  c317    
 G  c318    
 G  c319    
 G  c320    
 G  c321    
 G  c322    
 G  c323    
 G  c324    
 G  c325    
 G  c326    
 G  c327    
 G  c328    
 G  c329    
 G  c330    
 G  c331    
 G  c332    
 G  c333    
 G  c334    
 G  c335    
 G  c336    
 G  c337    
 G  c338    
 G  c339    
 G  c340    
 G  c341    
 G  c342    
 G  c343    
 G  c344    
 G  c345    
 G  c346    
 G  c347    
 G  c348    
 G  c349    
 G  c350    
 G  c351    
 G  c352    
 G  c353    
 G  c354    
 G  c355    
 G  c356    
 G  c357    
 G  c358    
 G  c359    
 G  c360    
 G  c361    
 G  c362    
 G  c363    
 G  c364    
 G  c365    
 G  c366    
 G  c367    
 G  c368    
 G  c369    
 G  c370    
 G  c371    
 G  c372    
 G  c373    
 G  c374    
 G  c375    
 G  c376    
 G  c377    
 G  c378    
 G  c379    
 G  c380    
 G  c381    
 G  c382    
 G  c383    
 G  c384    
 G  c385    
 G  c386    
 G  c387    
 G  c388    
 G  c389    
 G  c390    
 G  c391    
 G  c392    
 G  c393    
 G  c394    
 G  c395    
 G  c396    
 G  c397    
 G  c398    
 G  c399    
 G  c400    
 G  c401    
 G  c402    
 G  c403    
 G  c404    
 G  c405    
 G  c406    
 G  c407    
 G  c408    
 G  c409    
 G  c410    
 G  c411    
 G  c412    
 G  c413    
 G  c414    
 G  c415    
 G  c416    
 G  c417    
 G  c418    
 G  c419    
 G  c420    
 G  c421    
 G  c422    
 G  c423    
 G  c424    
 G  c425    
 G  c426    
 G  c427    
 G  c428    
 G  c429    
 G  c430    
 G  c431    
 G  c432    
 G  c433    
 G  c434    
 L  c435    
 L  c436    
 L  c437    
 L  c438    
 L  c439    
 L  c440    
 L  c441    
 L  c442    
 L  c443    
 L  c444    
 L  c445    
 L  c446    
 L  c447    
 L  c448    
 L  c449    
 L  c450    
 L  c451    
 L  c452    
 L  c453    
 L  c454    
 L  c455    
 L  c456    
 L  c457    
 L  c458    
 L  c459    
 L  c460    
 L  c461    
 L  c462    
 L  c463    
 L  c464    
 L  c465    
 L  c466    
 L  c467    
 L  c468    
 L  c469    
 L  c470    
 L  c471    
 L  c472    
 L  c473    
 L  c474    
 L  c475    
 L  c476    
 L  c477    
 L  c478    
 L  c479    
 L  c480    
 L  c481    
 L  c482    
 L  c483    
 L  c484    
 L  c485    
 L  c486    
 L  c487    
 L  c488    
 L  c489    
 L  c490    
 L  c491    
 L  c492    
 L  c493    
 L  c494    
 L  c495    
 L  c496    
 L  c497    
 L  c498    
 L  c499    
 L  c500    
 L  c501    
 L  c502    
 L  c503    
 L  c504    
 L  c505    
 L  c506    
 L  c507    
 L  c508    
 L  c509    
 L  c510    
 L  c511    
 L  c512    
 L  c513    
 L  c514    
 L  c515    
 L  c516    
 L  c517    
 L  c518    
 L  c519    
 L  c520    
 L  c521    
 L  c522    
 L  c523    
 L  c524    
 L  c525    
 L  c526    
 L  c527    
 L  c528    
 L  c529    
 L  c530    
 L  c531    
 L  c532    
 L  c533    
 L  c534    
 L  c535    
 L  c536    
 L  c537    
 L  c538    
 L  c539    
 L  c540    
 L  c541    
 L  c542    
 L  c543    
 L  c544    
 L  c545    
 L  c546    
 L  c547    
 L  c548    
 L  c549    
 L  c550    
 L  c551    
 L  c552    
 L  c553    
 L  c554    
 L  c555    
 L  c556    
 L  c557    
 L  c558    
 L  c559    
 L  c560    
 L  c561    
 L  c562    
 L  c563    
 L  c564    
 L  c565    
 L  c566    
 L  c567    
 L  c568    
 L  c569    
 L  c570    
 L  c571    
 L  c572    
 L  c573    
 L  c574    
 L  c575    
 L  c576    
 L  c577    
 L  c578    
 L  c579    
 L  c580    
 L  c581    
 L  c582    
 L  c583    
 L  c584    
 L  c585    
 L  c586    
 L  c587    
 L  c588    
 L  c589    
 L  c590    
 L  c591    
 L  c592    
 L  c593    
 L  c594    
 L  c595    
 L  c596    
 L  c597    
 L  c598    
 L  c599    
 L  c600    
 L  c601    
 L  c602    
 L  c603    
 L  c604    
 L  c605    
 L  c606    
 L  c607    
 L  c608    
 L  c609    
 L  c610    
 L  c611    
 L  c612    
 L  c613    
 L  c614    
 L  c615    
 L  c616    
 L  c617    
 L  c618    
 L  c619    
 L  c620    
 L  c621    
 L  c622    
 L  c623    
 L  c624    
 L  c625    
 L  c626    
 L  c627    
 L  c628    
 L  c629    
 L  c630    
 L  c631    
 L  c632    
 L  c633    
 L  c634    
 L  c635    
 L  c636    
 L  c637    
 L  c638    
 L  c639    
 L  c640    
 L  c641    
 L  c642    
 L  c643    
 L  c644    
 L  c645    
 L  c646    
 L  c647    
 L  c648    
 L  c649    
 L  c650    
 L  c651    
 L  c652    
 L  c653    
 L  c654    
 L  c655    
 L  c656    
 L  c657    
 L  c658    
 L  c659    
 L  c660    
 L  c661    
 L  c662    
 L  c663    
 L  c664    
 L  c665    
 L  c666    
 L  c667    
 L  c668    
 L  c669    
 L  c670    
 L  c671    
 L  c672    
 L  c673    
 L  c674    
 L  c675    
 L  c676    
 L  c677    
 L  c678    
 L  c679    
 L  c680    
 L  c681    
 L  c682    
 L  c683    
 L  c684    
 L  c685    
 L  c686    
 L  c687    
 L  c688    
 L  c689    
 L  c690    
 L  c691    
 L  c692    
 L  c693    
 L  c694    
 L  c695    
 L  c696    
 L  c697    
 L  c698    
 L  c699    
 L  c700    
 L  c701    
 L  c702    
 L  c703    
 L  c704    
 L  c705    
 L  c706    
 L  c707    
 L  c708    
 L  c709    
 L  c710    
 L  c711    
 L  c712    
 L  c713    
 L  c714    
 L  c715    
 L  c716    
 L  c717    
 L  c718    
 L  c719    
 L  c720    
 L  c721    
 L  c722    
 L  c723    
 L  c724    
 L  c725    
 L  c726    
 L  c727    
 L  c728    
 L  c729    
 L  c730    
 L  c731    
 L  c732    
 L  c733    
 L  c734    
 L  c735    
 L  c736    
 L  c737    
 L  c738    
 L  c739    
 L  c740    
 L  c741    
 L  c742    
 L  c743    
 L  c744    
 L  c745    
 L  c746    
 L  c747    
 L  c748    
 L  c749    
 L  c750    
 L  c751    
 L  c752    
 L  c753    
 L  c754    
 L  c755    
 L  c756    
 L  c757    
 L  c758    
 L  c759    
 L  c760    
 L  c761    
 L  c762    
 L  c763    
 L  c764    
 L  c765    
 L  c766    
 L  c767    
 L  c768    
 L  c769    
 L  c770    
 L  c771    
 L  c772    
 L  c773    
 L  c774    
 L  c775    
 L  c776    
 L  c777    
 L  c778    
 L  c779    
 L  c780    
 L  c781    
 L  c782    
 L  c783    
 L  c784    
 L  c785    
 L  c786    
 L  c787    
 L  c788    
 L  c789    
 L  c790    
 L  c791    
 L  c792    
 L  c793    
 L  c794    
 L  c795    
 L  c796    
 L  c797    
 L  c798    
 L  c799    
 L  c800    
 L  c801    
 L  c802    
 L  c803    
 L  c804    
 L  c805    
 L  c806    
 L  c807    
 L  c808    
 L  c809    
 L  c810    
 L  c811    
 L  c812    
 L  c813    
 L  c814    
 L  c815    
 L  c816    
 L  c817    
 L  c818    
 L  c819    
 L  c820    
 L  c821    
 L  c822    
 L  c823    
 L  c824    
 L  c825    
 L  c826    
 L  c827    
 L  c828    
 L  c829    
 L  c830    
 L  c831    
 L  c832    
 L  c833    
 L  c834    
 L  c835    
 L  c836    
 L  c837    
 L  c838    
 L  c839    
 L  c840    
 L  c841    
 L  c842    
 L  c843    
 L  c844    
 L  c845    
 L  c846    
 L  c847    
 L  c848    
 L  c849    
 L  c850    
 L  c851    
 L  c852    
 L  c853    
 L  c854    
 G  c855    
 G  c856    
 G  c857    
 G  c858    
 G  c859    
 G  c860    
 G  c861    
 G  c862    
 G  c863    
 G  c864    
 G  c865    
 G  c866    
 G  c867    
 G  c868    
 G  c869    
 G  c870    
 G  c871    
 G  c872    
 G  c873    
 G  c874    
 G  c875    
 G  c876    
 G  c877    
 G  c878    
 G  c879    
 G  c880    
 G  c881    
 G  c882    
 G  c883    
 G  c884    
 G  c885    
 G  c886    
 G  c887    
 G  c888    
 G  c889    
 G  c890    
 G  c891    
 G  c892    
 G  c893    
 G  c894    
 G  c895    
 G  c896    
 G  c897    
 G  c898    
 G  c899    
 G  c900    
 G  c901    
 G  c902    
 G  c903    
 G  c904    
 G  c905    
 G  c906    
 G  c907    
 G  c908    
 G  c909    
 G  c910    
 G  c911    
 G  c912    
 G  c913    
 G  c914    
 G  c915    
 G  c916    
 G  c917    
 G  c918    
 G  c919    
 G  c920    
 G  c921    
 G  c922    
 G  c923    
 G  c924    
 G  c925    
 G  c926    
 G  c927    
 G  c928    
 G  c929    
 G  c930    
 G  c931    
 G  c932    
 G  c933    
 G  c934    
 G  c935    
 G  c936    
 G  c937    
 G  c938    
 G  c939    
 G  c940    
 G  c941    
 G  c942    
 G  c943    
 G  c944    
 G  c945    
 G  c946    
 G  c947    
 G  c948    
 G  c949    
 G  c950    
 G  c951    
 G  c952    
 G  c953    
 G  c954    
 G  c955    
 G  c956    
 G  c957    
 G  c958    
 G  c959    
 G  c960    
 G  c961    
 G  c962    
 G  c963    
 G  c964    
 G  c965    
 G  c966    
 G  c967    
 G  c968    
 G  c969    
 G  c970    
 G  c971    
 G  c972    
 G  c973    
 G  c974    
 G  c975    
 G  c976    
 G  c977    
 G  c978    
 G  c979    
 G  c980    
 G  c981    
 G  c982    
 G  c983    
 G  c984    
 G  c985    
 G  c986    
 G  c987    
 G  c988    
 G  c989    
 G  c990    
 G  c991    
 G  c992    
 G  c993    
 G  c994    
 G  c995    
 G  c996    
 G  c997    
 G  c998    
 G  c999    
 G  c1000   
 G  c1001   
 G  c1002   
 G  c1003   
 G  c1004   
 G  c1005   
 G  c1006   
 G  c1007   
 G  c1008   
 G  c1009   
 G  c1010   
 G  c1011   
 G  c1012   
 G  c1013   
 G  c1014   
 G  c1015   
 G  c1016   
 G  c1017   
 G  c1018   
 G  c1019   
 G  c1020   
 G  c1021   
 G  c1022   
 G  c1023   
 G  c1024   
 G  c1025   
 G  c1026   
 G  c1027   
 G  c1028   
 G  c1029   
 G  c1030   
 G  c1031   
 G  c1032   
 G  c1033   
 G  c1034   
 G  c1035   
 G  c1036   
 G  c1037   
 G  c1038   
 G  c1039   
 G  c1040   
 G  c1041   
 G  c1042   
 G  c1043   
 G  c1044   
 G  c1045   
 G  c1046   
 G  c1047   
 G  c1048   
 G  c1049   
 G  c1050   
 G  c1051   
 G  c1052   
 G  c1053   
 G  c1054   
 G  c1055   
 G  c1056   
 G  c1057   
 G  c1058   
 G  c1059   
 G  c1060   
 G  c1061   
 G  c1062   
 G  c1063   
 G  c1064   
 G  c1065   
 G  c1066   
 G  c1067   
 G  c1068   
 G  c1069   
 G  c1070   
 G  c1071   
 G  c1072   
 G  c1073   
 G  c1074   
 G  c1075   
 G  c1076   
 G  c1077   
 G  c1078   
 G  c1079   
 G  c1080   
 G  c1081   
 G  c1082   
 G  c1083   
 G  c1084   
 G  c1085   
 G  c1086   
 G  c1087   
 G  c1088   
 G  c1089   
 G  c1090   
 G  c1091   
 G  c1092   
 G  c1093   
 G  c1094   
 G  c1095   
 G  c1096   
 G  c1097   
 G  c1098   
 G  c1099   
 G  c1100   
 G  c1101   
 G  c1102   
 G  c1103   
 G  c1104   
 G  c1105   
 G  c1106   
 G  c1107   
 G  c1108   
 G  c1109   
 G  c1110   
 G  c1111   
 G  c1112   
 G  c1113   
 G  c1114   
 G  c1115   
 G  c1116   
 G  c1117   
 G  c1118   
 G  c1119   
 G  c1120   
 G  c1121   
 G  c1122   
 G  c1123   
 G  c1124   
 G  c1125   
 G  c1126   
 G  c1127   
 G  c1128   
 G  c1129   
 G  c1130   
 G  c1131   
 G  c1132   
 G  c1133   
 G  c1134   
 G  c1135   
 G  c1136   
 G  c1137   
 G  c1138   
 G  c1139   
 G  c1140   
 G  c1141   
 G  c1142   
 G  c1143   
 G  c1144   
 G  c1145   
 G  c1146   
 G  c1147   
 G  c1148   
 G  c1149   
 G  c1150   
 G  c1151   
 G  c1152   
 G  c1153   
 G  c1154   
 G  c1155   
 G  c1156   
 G  c1157   
 G  c1158   
 G  c1159   
 G  c1160   
 G  c1161   
 G  c1162   
 G  c1163   
 G  c1164   
 G  c1165   
 G  c1166   
 G  c1167   
 G  c1168   
 G  c1169   
 G  c1170   
 G  c1171   
 G  c1172   
 G  c1173   
 G  c1174   
 G  c1175   
 G  c1176   
 G  c1177   
 G  c1178   
 G  c1179   
 G  c1180   
 G  c1181   
 G  c1182   
 G  c1183   
 G  c1184   
 G  c1185   
 G  c1186   
 G  c1187   
 G  c1188   
 G  c1189   
 G  c1190   
 G  c1191   
 G  c1192   
 G  c1193   
 G  c1194   
 G  c1195   
 G  c1196   
 G  c1197   
 G  c1198   
 G  c1199   
 G  c1200   
 G  c1201   
 G  c1202   
 G  c1203   
 G  c1204   
 G  c1205   
 G  c1206   
 G  c1207   
 G  c1208   
 G  c1209   
 G  c1210   
 G  c1211   
 G  c1212   
 G  c1213   
 G  c1214   
 G  c1215   
 G  c1216   
 G  c1217   
 G  c1218   
 G  c1219   
 G  c1220   
 G  c1221   
 G  c1222   
 G  c1223   
 G  c1224   
 G  c1225   
 G  c1226   
 G  c1227   
 G  c1228   
 G  c1229   
 G  c1230   
 G  c1231   
 G  c1232   
 G  c1233   
 G  c1234   
 G  c1235   
 G  c1236   
 G  c1237   
 G  c1238   
 G  c1239   
 G  c1240   
 G  c1241   
 G  c1242   
 G  c1243   
 G  c1244   
 G  c1245   
 G  c1246   
 G  c1247   
 G  c1248   
 G  c1249   
 G  c1250   
 G  c1251   
 G  c1252   
 G  c1253   
 G  c1254   
 G  c1255   
 G  c1256   
 G  c1257   
 G  c1258   
 G  c1259   
 G  c1260   
 G  c1261   
 G  c1262   
 G  c1263   
 G  c1264   
 G  c1265   
 G  c1266   
 G  c1267   
 G  c1268   
 G  c1269   
 G  c1270   
 G  c1271   
 G  c1272   
 G  c1273   
 G  c1274   
COLUMNS
    c[B0,0]   c43       1
    c[B0,0]   c71       1
    c[B0,0]   c99       1
    c[B0,0]   c127      1
    c[B0,0]   c155      1
    c[B0,0]   c183      1
    c[B0,0]   c211      1
    c[B0,0]   c239      1
    c[B0,0]   c267      1
    c[B0,0]   c295      1
    c[B0,0]   c323      1
    c[B0,0]   c351      1
    c[B0,0]   c379      1
    c[B0,0]   c407      1
    c[B0,0]   c435      1
    c[B0,0]   c437      1
    c[B0,0]   c439      1
    c[B0,0]   c441      1
    c[B0,0]   c443      1
    c[B0,0]   c445      1
    c[B0,0]   c447      1
    c[B0,0]   c449      1
    c[B0,0]   c451      1
    c[B0,0]   c453      1
    c[B0,0]   c455      1
    c[B0,0]   c457      1
    c[B0,0]   c459      1
    c[B0,0]   c461      1
    c[B0,0]   c855      -1
    c[B0,0]   c857      -1
    c[B0,0]   c859      -1
    c[B0,0]   c861      -1
    c[B0,0]   c863      -1
    c[B0,0]   c865      -1
    c[B0,0]   c867      -1
    c[B0,0]   c869      -1
    c[B0,0]   c871      -1
    c[B0,0]   c873      -1
    c[B0,0]   c875      -1
    c[B0,0]   c877      -1
    c[B0,0]   c879      -1
    c[B0,0]   c881      -1
    c[B0,0]   c883      1
    c[B0,0]   c911      1
    c[B0,0]   c939      1
    c[B0,0]   c967      1
    c[B0,0]   c995      1
    c[B0,0]   c1023     1
    c[B0,0]   c1051     1
    c[B0,0]   c1079     1
    c[B0,0]   c1107     1
    c[B0,0]   c1135     1
    c[B0,0]   c1163     1
    c[B0,0]   c1191     1
    c[B0,0]   c1219     1
    c[B0,0]   c1247     1
    c[B0,1]   c0        -1
    c[B0,1]   c44       1
    c[B0,1]   c72       1
    c[B0,1]   c100      1
    c[B0,1]   c128      1
    c[B0,1]   c156      1
    c[B0,1]   c184      1
    c[B0,1]   c212      1
    c[B0,1]   c240      1
    c[B0,1]   c268      1
    c[B0,1]   c296      1
    c[B0,1]   c324      1
    c[B0,1]   c352      1
    c[B0,1]   c380      1
    c[B0,1]   c408      1
    c[B0,1]   c436      1
    c[B0,1]   c438      1
    c[B0,1]   c440      1
    c[B0,1]   c442      1
    c[B0,1]   c444      1
    c[B0,1]   c446      1
    c[B0,1]   c448      1
    c[B0,1]   c450      1
    c[B0,1]   c452      1
    c[B0,1]   c454      1
    c[B0,1]   c456      1
    c[B0,1]   c458      1
    c[B0,1]   c460      1
    c[B0,1]   c462      1
    c[B0,1]   c856      -1
    c[B0,1]   c858      -1
    c[B0,1]   c860      -1
    c[B0,1]   c862      -1
    c[B0,1]   c864      -1
    c[B0,1]   c866      -1
    c[B0,1]   c868      -1
    c[B0,1]   c870      -1
    c[B0,1]   c872      -1
    c[B0,1]   c874      -1
    c[B0,1]   c876      -1
    c[B0,1]   c878      -1
    c[B0,1]   c880      -1
    c[B0,1]   c882      -1
    c[B0,1]   c884      1
    c[B0,1]   c912      1
    c[B0,1]   c940      1
    c[B0,1]   c968      1
    c[B0,1]   c996      1
    c[B0,1]   c1024     1
    c[B0,1]   c1052     1
    c[B0,1]   c1080     1
    c[B0,1]   c1108     1
    c[B0,1]   c1136     1
    c[B0,1]   c1164     1
    c[B0,1]   c1192     1
    c[B0,1]   c1220     1
    c[B0,1]   c1248     1
    c[B1,0]   c15       1
    c[B1,0]   c73       1
    c[B1,0]   c101      1
    c[B1,0]   c129      1
    c[B1,0]   c157      1
    c[B1,0]   c185      1
    c[B1,0]   c213      1
    c[B1,0]   c241      1
    c[B1,0]   c269      1
    c[B1,0]   c297      1
    c[B1,0]   c325      1
    c[B1,0]   c353      1
    c[B1,0]   c381      1
    c[B1,0]   c409      1
    c[B1,0]   c463      1
    c[B1,0]   c465      1
    c[B1,0]   c467      1
    c[B1,0]   c469      1
    c[B1,0]   c471      1
    c[B1,0]   c473      1
    c[B1,0]   c475      1
    c[B1,0]   c477      1
    c[B1,0]   c479      1
    c[B1,0]   c481      1
    c[B1,0]   c483      1
    c[B1,0]   c485      1
    c[B1,0]   c487      1
    c[B1,0]   c489      1
    c[B1,0]   c855      1
    c[B1,0]   c883      -1
    c[B1,0]   c885      -1
    c[B1,0]   c887      -1
    c[B1,0]   c889      -1
    c[B1,0]   c891      -1
    c[B1,0]   c893      -1
    c[B1,0]   c895      -1
    c[B1,0]   c897      -1
    c[B1,0]   c899      -1
    c[B1,0]   c901      -1
    c[B1,0]   c903      -1
    c[B1,0]   c905      -1
    c[B1,0]   c907      -1
    c[B1,0]   c909      -1
    c[B1,0]   c913      1
    c[B1,0]   c941      1
    c[B1,0]   c969      1
    c[B1,0]   c997      1
    c[B1,0]   c1025     1
    c[B1,0]   c1053     1
    c[B1,0]   c1081     1
    c[B1,0]   c1109     1
    c[B1,0]   c1137     1
    c[B1,0]   c1165     1
    c[B1,0]   c1193     1
    c[B1,0]   c1221     1
    c[B1,0]   c1249     1
    c[B1,1]   c1        -1
    c[B1,1]   c16       1
    c[B1,1]   c74       1
    c[B1,1]   c102      1
    c[B1,1]   c130      1
    c[B1,1]   c158      1
    c[B1,1]   c186      1
    c[B1,1]   c214      1
    c[B1,1]   c242      1
    c[B1,1]   c270      1
    c[B1,1]   c298      1
    c[B1,1]   c326      1
    c[B1,1]   c354      1
    c[B1,1]   c382      1
    c[B1,1]   c410      1
    c[B1,1]   c464      1
    c[B1,1]   c466      1
    c[B1,1]   c468      1
    c[B1,1]   c470      1
    c[B1,1]   c472      1
    c[B1,1]   c474      1
    c[B1,1]   c476      1
    c[B1,1]   c478      1
    c[B1,1]   c480      1
    c[B1,1]   c482      1
    c[B1,1]   c484      1
    c[B1,1]   c486      1
    c[B1,1]   c488      1
    c[B1,1]   c490      1
    c[B1,1]   c856      1
    c[B1,1]   c884      -1
    c[B1,1]   c886      -1
    c[B1,1]   c888      -1
    c[B1,1]   c890      -1
    c[B1,1]   c892      -1
    c[B1,1]   c894      -1
    c[B1,1]   c896      -1
    c[B1,1]   c898      -1
    c[B1,1]   c900      -1
    c[B1,1]   c902      -1
    c[B1,1]   c904      -1
    c[B1,1]   c906      -1
    c[B1,1]   c908      -1
    c[B1,1]   c910      -1
    c[B1,1]   c914      1
    c[B1,1]   c942      1
    c[B1,1]   c970      1
    c[B1,1]   c998      1
    c[B1,1]   c1026     1
    c[B1,1]   c1054     1
    c[B1,1]   c1082     1
    c[B1,1]   c1110     1
    c[B1,1]   c1138     1
    c[B1,1]   c1166     1
    c[B1,1]   c1194     1
    c[B1,1]   c1222     1
    c[B1,1]   c1250     1
    c[B2,0]   c17       1
    c[B2,0]   c45       1
    c[B2,0]   c103      1
    c[B2,0]   c131      1
    c[B2,0]   c159      1
    c[B2,0]   c187      1
    c[B2,0]   c215      1
    c[B2,0]   c243      1
    c[B2,0]   c271      1
    c[B2,0]   c299      1
    c[B2,0]   c327      1
    c[B2,0]   c355      1
    c[B2,0]   c383      1
    c[B2,0]   c411      1
    c[B2,0]   c491      1
    c[B2,0]   c493      1
    c[B2,0]   c495      1
    c[B2,0]   c497      1
    c[B2,0]   c499      1
    c[B2,0]   c501      1
    c[B2,0]   c503      1
    c[B2,0]   c505      1
    c[B2,0]   c507      1
    c[B2,0]   c509      1
    c[B2,0]   c511      1
    c[B2,0]   c513      1
    c[B2,0]   c515      1
    c[B2,0]   c517      1
    c[B2,0]   c857      1
    c[B2,0]   c885      1
    c[B2,0]   c911      -1
    c[B2,0]   c913      -1
    c[B2,0]   c915      -1
    c[B2,0]   c917      -1
    c[B2,0]   c919      -1
    c[B2,0]   c921      -1
    c[B2,0]   c923      -1
    c[B2,0]   c925      -1
    c[B2,0]   c927      -1
    c[B2,0]   c929      -1
    c[B2,0]   c931      -1
    c[B2,0]   c933      -1
    c[B2,0]   c935      -1
    c[B2,0]   c937      -1
    c[B2,0]   c943      1
    c[B2,0]   c971      1
    c[B2,0]   c999      1
    c[B2,0]   c1027     1
    c[B2,0]   c1055     1
    c[B2,0]   c1083     1
    c[B2,0]   c1111     1
    c[B2,0]   c1139     1
    c[B2,0]   c1167     1
    c[B2,0]   c1195     1
    c[B2,0]   c1223     1
    c[B2,0]   c1251     1
    c[B2,1]   c2        -1
    c[B2,1]   c18       1
    c[B2,1]   c46       1
    c[B2,1]   c104      1
    c[B2,1]   c132      1
    c[B2,1]   c160      1
    c[B2,1]   c188      1
    c[B2,1]   c216      1
    c[B2,1]   c244      1
    c[B2,1]   c272      1
    c[B2,1]   c300      1
    c[B2,1]   c328      1
    c[B2,1]   c356      1
    c[B2,1]   c384      1
    c[B2,1]   c412      1
    c[B2,1]   c492      1
    c[B2,1]   c494      1
    c[B2,1]   c496      1
    c[B2,1]   c498      1
    c[B2,1]   c500      1
    c[B2,1]   c502      1
    c[B2,1]   c504      1
    c[B2,1]   c506      1
    c[B2,1]   c508      1
    c[B2,1]   c510      1
    c[B2,1]   c512      1
    c[B2,1]   c514      1
    c[B2,1]   c516      1
    c[B2,1]   c518      1
    c[B2,1]   c858      1
    c[B2,1]   c886      1
    c[B2,1]   c912      -1
    c[B2,1]   c914      -1
    c[B2,1]   c916      -1
    c[B2,1]   c918      -1
    c[B2,1]   c920      -1
    c[B2,1]   c922      -1
    c[B2,1]   c924      -1
    c[B2,1]   c926      -1
    c[B2,1]   c928      -1
    c[B2,1]   c930      -1
    c[B2,1]   c932      -1
    c[B2,1]   c934      -1
    c[B2,1]   c936      -1
    c[B2,1]   c938      -1
    c[B2,1]   c944      1
    c[B2,1]   c972      1
    c[B2,1]   c1000     1
    c[B2,1]   c1028     1
    c[B2,1]   c1056     1
    c[B2,1]   c1084     1
    c[B2,1]   c1112     1
    c[B2,1]   c1140     1
    c[B2,1]   c1168     1
    c[B2,1]   c1196     1
    c[B2,1]   c1224     1
    c[B2,1]   c1252     1
    c[B3,0]   c19       1
    c[B3,0]   c47       1
    c[B3,0]   c75       1
    c[B3,0]   c133      1
    c[B3,0]   c161      1
    c[B3,0]   c189      1
    c[B3,0]   c217      1
    c[B3,0]   c245      1
    c[B3,0]   c273      1
    c[B3,0]   c301      1
    c[B3,0]   c329      1
    c[B3,0]   c357      1
    c[B3,0]   c385      1
    c[B3,0]   c413      1
    c[B3,0]   c519      1
    c[B3,0]   c521      1
    c[B3,0]   c523      1
    c[B3,0]   c525      1
    c[B3,0]   c527      1
    c[B3,0]   c529      1
    c[B3,0]   c531      1
    c[B3,0]   c533      1
    c[B3,0]   c535      1
    c[B3,0]   c537      1
    c[B3,0]   c539      1
    c[B3,0]   c541      1
    c[B3,0]   c543      1
    c[B3,0]   c545      1
    c[B3,0]   c859      1
    c[B3,0]   c887      1
    c[B3,0]   c915      1
    c[B3,0]   c939      -1
    c[B3,0]   c941      -1
    c[B3,0]   c943      -1
    c[B3,0]   c945      -1
    c[B3,0]   c947      -1
    c[B3,0]   c949      -1
    c[B3,0]   c951      -1
    c[B3,0]   c953      -1
    c[B3,0]   c955      -1
    c[B3,0]   c957      -1
    c[B3,0]   c959      -1
    c[B3,0]   c961      -1
    c[B3,0]   c963      -1
    c[B3,0]   c965      -1
    c[B3,0]   c973      1
    c[B3,0]   c1001     1
    c[B3,0]   c1029     1
    c[B3,0]   c1057     1
    c[B3,0]   c1085     1
    c[B3,0]   c1113     1
    c[B3,0]   c1141     1
    c[B3,0]   c1169     1
    c[B3,0]   c1197     1
    c[B3,0]   c1225     1
    c[B3,0]   c1253     1
    c[B3,1]   c3        -1
    c[B3,1]   c20       1
    c[B3,1]   c48       1
    c[B3,1]   c76       1
    c[B3,1]   c134      1
    c[B3,1]   c162      1
    c[B3,1]   c190      1
    c[B3,1]   c218      1
    c[B3,1]   c246      1
    c[B3,1]   c274      1
    c[B3,1]   c302      1
    c[B3,1]   c330      1
    c[B3,1]   c358      1
    c[B3,1]   c386      1
    c[B3,1]   c414      1
    c[B3,1]   c520      1
    c[B3,1]   c522      1
    c[B3,1]   c524      1
    c[B3,1]   c526      1
    c[B3,1]   c528      1
    c[B3,1]   c530      1
    c[B3,1]   c532      1
    c[B3,1]   c534      1
    c[B3,1]   c536      1
    c[B3,1]   c538      1
    c[B3,1]   c540      1
    c[B3,1]   c542      1
    c[B3,1]   c544      1
    c[B3,1]   c546      1
    c[B3,1]   c860      1
    c[B3,1]   c888      1
    c[B3,1]   c916      1
    c[B3,1]   c940      -1
    c[B3,1]   c942      -1
    c[B3,1]   c944      -1
    c[B3,1]   c946      -1
    c[B3,1]   c948      -1
    c[B3,1]   c950      -1
    c[B3,1]   c952      -1
    c[B3,1]   c954      -1
    c[B3,1]   c956      -1
    c[B3,1]   c958      -1
    c[B3,1]   c960      -1
    c[B3,1]   c962      -1
    c[B3,1]   c964      -1
    c[B3,1]   c966      -1
    c[B3,1]   c974      1
    c[B3,1]   c1002     1
    c[B3,1]   c1030     1
    c[B3,1]   c1058     1
    c[B3,1]   c1086     1
    c[B3,1]   c1114     1
    c[B3,1]   c1142     1
    c[B3,1]   c1170     1
    c[B3,1]   c1198     1
    c[B3,1]   c1226     1
    c[B3,1]   c1254     1
    c[B4,0]   c21       1
    c[B4,0]   c49       1
    c[B4,0]   c77       1
    c[B4,0]   c105      1
    c[B4,0]   c163      1
    c[B4,0]   c191      1
    c[B4,0]   c219      1
    c[B4,0]   c247      1
    c[B4,0]   c275      1
    c[B4,0]   c303      1
    c[B4,0]   c331      1
    c[B4,0]   c359      1
    c[B4,0]   c387      1
    c[B4,0]   c415      1
    c[B4,0]   c547      1
    c[B4,0]   c549      1
    c[B4,0]   c551      1
    c[B4,0]   c553      1
    c[B4,0]   c555      1
    c[B4,0]   c557      1
    c[B4,0]   c559      1
    c[B4,0]   c561      1
    c[B4,0]   c563      1
    c[B4,0]   c565      1
    c[B4,0]   c567      1
    c[B4,0]   c569      1
    c[B4,0]   c571      1
    c[B4,0]   c573      1
    c[B4,0]   c861      1
    c[B4,0]   c889      1
    c[B4,0]   c917      1
    c[B4,0]   c945      1
    c[B4,0]   c967      -1
    c[B4,0]   c969      -1
    c[B4,0]   c971      -1
    c[B4,0]   c973      -1
    c[B4,0]   c975      -1
    c[B4,0]   c977      -1
    c[B4,0]   c979      -1
    c[B4,0]   c981      -1
    c[B4,0]   c983      -1
    c[B4,0]   c985      -1
    c[B4,0]   c987      -1
    c[B4,0]   c989      -1
    c[B4,0]   c991      -1
    c[B4,0]   c993      -1
    c[B4,0]   c1003     1
    c[B4,0]   c1031     1
    c[B4,0]   c1059     1
    c[B4,0]   c1087     1
    c[B4,0]   c1115     1
    c[B4,0]   c1143     1
    c[B4,0]   c1171     1
    c[B4,0]   c1199     1
    c[B4,0]   c1227     1
    c[B4,0]   c1255     1
    c[B4,1]   c4        -1
    c[B4,1]   c22       1
    c[B4,1]   c50       1
    c[B4,1]   c78       1
    c[B4,1]   c106      1
    c[B4,1]   c164      1
    c[B4,1]   c192      1
    c[B4,1]   c220      1
    c[B4,1]   c248      1
    c[B4,1]   c276      1
    c[B4,1]   c304      1
    c[B4,1]   c332      1
    c[B4,1]   c360      1
    c[B4,1]   c388      1
    c[B4,1]   c416      1
    c[B4,1]   c548      1
    c[B4,1]   c550      1
    c[B4,1]   c552      1
    c[B4,1]   c554      1
    c[B4,1]   c556      1
    c[B4,1]   c558      1
    c[B4,1]   c560      1
    c[B4,1]   c562      1
    c[B4,1]   c564      1
    c[B4,1]   c566      1
    c[B4,1]   c568      1
    c[B4,1]   c570      1
    c[B4,1]   c572      1
    c[B4,1]   c574      1
    c[B4,1]   c862      1
    c[B4,1]   c890      1
    c[B4,1]   c918      1
    c[B4,1]   c946      1
    c[B4,1]   c968      -1
    c[B4,1]   c970      -1
    c[B4,1]   c972      -1
    c[B4,1]   c974      -1
    c[B4,1]   c976      -1
    c[B4,1]   c978      -1
    c[B4,1]   c980      -1
    c[B4,1]   c982      -1
    c[B4,1]   c984      -1
    c[B4,1]   c986      -1
    c[B4,1]   c988      -1
    c[B4,1]   c990      -1
    c[B4,1]   c992      -1
    c[B4,1]   c994      -1
    c[B4,1]   c1004     1
    c[B4,1]   c1032     1
    c[B4,1]   c1060     1
    c[B4,1]   c1088     1
    c[B4,1]   c1116     1
    c[B4,1]   c1144     1
    c[B4,1]   c1172     1
    c[B4,1]   c1200     1
    c[B4,1]   c1228     1
    c[B4,1]   c1256     1
    c[B5,0]   c23       1
    c[B5,0]   c51       1
    c[B5,0]   c79       1
    c[B5,0]   c107      1
    c[B5,0]   c135      1
    c[B5,0]   c193      1
    c[B5,0]   c221      1
    c[B5,0]   c249      1
    c[B5,0]   c277      1
    c[B5,0]   c305      1
    c[B5,0]   c333      1
    c[B5,0]   c361      1
    c[B5,0]   c389      1
    c[B5,0]   c417      1
    c[B5,0]   c575      1
    c[B5,0]   c577      1
    c[B5,0]   c579      1
    c[B5,0]   c581      1
    c[B5,0]   c583      1
    c[B5,0]   c585      1
    c[B5,0]   c587      1
    c[B5,0]   c589      1
    c[B5,0]   c591      1
    c[B5,0]   c593      1
    c[B5,0]   c595      1
    c[B5,0]   c597      1
    c[B5,0]   c599      1
    c[B5,0]   c601      1
    c[B5,0]   c863      1
    c[B5,0]   c891      1
    c[B5,0]   c919      1
    c[B5,0]   c947      1
    c[B5,0]   c975      1
    c[B5,0]   c995      -1
    c[B5,0]   c997      -1
    c[B5,0]   c999      -1
    c[B5,0]   c1001     -1
    c[B5,0]   c1003     -1
    c[B5,0]   c1005     -1
    c[B5,0]   c1007     -1
    c[B5,0]   c1009     -1
    c[B5,0]   c1011     -1
    c[B5,0]   c1013     -1
    c[B5,0]   c1015     -1
    c[B5,0]   c1017     -1
    c[B5,0]   c1019     -1
    c[B5,0]   c1021     -1
    c[B5,0]   c1033     1
    c[B5,0]   c1061     1
    c[B5,0]   c1089     1
    c[B5,0]   c1117     1
    c[B5,0]   c1145     1
    c[B5,0]   c1173     1
    c[B5,0]   c1201     1
    c[B5,0]   c1229     1
    c[B5,0]   c1257     1
    c[B5,1]   c5        -1
    c[B5,1]   c24       1
    c[B5,1]   c52       1
    c[B5,1]   c80       1
    c[B5,1]   c108      1
    c[B5,1]   c136      1
    c[B5,1]   c194      1
    c[B5,1]   c222      1
    c[B5,1]   c250      1
    c[B5,1]   c278      1
    c[B5,1]   c306      1
    c[B5,1]   c334      1
    c[B5,1]   c362      1
    c[B5,1]   c390      1
    c[B5,1]   c418      1
    c[B5,1]   c576      1
    c[B5,1]   c578      1
    c[B5,1]   c580      1
    c[B5,1]   c582      1
    c[B5,1]   c584      1
    c[B5,1]   c586      1
    c[B5,1]   c588      1
    c[B5,1]   c590      1
    c[B5,1]   c592      1
    c[B5,1]   c594      1
    c[B5,1]   c596      1
    c[B5,1]   c598      1
    c[B5,1]   c600      1
    c[B5,1]   c602      1
    c[B5,1]   c864      1
    c[B5,1]   c892      1
    c[B5,1]   c920      1
    c[B5,1]   c948      1
    c[B5,1]   c976      1
    c[B5,1]   c996      -1
    c[B5,1]   c998      -1
    c[B5,1]   c1000     -1
    c[B5,1]   c1002     -1
    c[B5,1]   c1004     -1
    c[B5,1]   c1006     -1
    c[B5,1]   c1008     -1
    c[B5,1]   c1010     -1
    c[B5,1]   c1012     -1
    c[B5,1]   c1014     -1
    c[B5,1]   c1016     -1
    c[B5,1]   c1018     -1
    c[B5,1]   c1020     -1
    c[B5,1]   c1022     -1
    c[B5,1]   c1034     1
    c[B5,1]   c1062     1
    c[B5,1]   c1090     1
    c[B5,1]   c1118     1
    c[B5,1]   c1146     1
    c[B5,1]   c1174     1
    c[B5,1]   c1202     1
    c[B5,1]   c1230     1
    c[B5,1]   c1258     1
    c[B6,0]   c25       1
    c[B6,0]   c53       1
    c[B6,0]   c81       1
    c[B6,0]   c109      1
    c[B6,0]   c137      1
    c[B6,0]   c165      1
    c[B6,0]   c223      1
    c[B6,0]   c251      1
    c[B6,0]   c279      1
    c[B6,0]   c307      1
    c[B6,0]   c335      1
    c[B6,0]   c363      1
    c[B6,0]   c391      1
    c[B6,0]   c419      1
    c[B6,0]   c603      1
    c[B6,0]   c605      1
    c[B6,0]   c607      1
    c[B6,0]   c609      1
    c[B6,0]   c611      1
    c[B6,0]   c613      1
    c[B6,0]   c615      1
    c[B6,0]   c617      1
    c[B6,0]   c619      1
    c[B6,0]   c621      1
    c[B6,0]   c623      1
    c[B6,0]   c625      1
    c[B6,0]   c627      1
    c[B6,0]   c629      1
    c[B6,0]   c865      1
    c[B6,0]   c893      1
    c[B6,0]   c921      1
    c[B6,0]   c949      1
    c[B6,0]   c977      1
    c[B6,0]   c1005     1
    c[B6,0]   c1023     -1
    c[B6,0]   c1025     -1
    c[B6,0]   c1027     -1
    c[B6,0]   c1029     -1
    c[B6,0]   c1031     -1
    c[B6,0]   c1033     -1
    c[B6,0]   c1035     -1
    c[B6,0]   c1037     -1
    c[B6,0]   c1039     -1
    c[B6,0]   c1041     -1
    c[B6,0]   c1043     -1
    c[B6,0]   c1045     -1
    c[B6,0]   c1047     -1
    c[B6,0]   c1049     -1
    c[B6,0]   c1063     1
    c[B6,0]   c1091     1
    c[B6,0]   c1119     1
    c[B6,0]   c1147     1
    c[B6,0]   c1175     1
    c[B6,0]   c1203     1
    c[B6,0]   c1231     1
    c[B6,0]   c1259     1
    c[B6,1]   c6        -1
    c[B6,1]   c26       1
    c[B6,1]   c54       1
    c[B6,1]   c82       1
    c[B6,1]   c110      1
    c[B6,1]   c138      1
    c[B6,1]   c166      1
    c[B6,1]   c224      1
    c[B6,1]   c252      1
    c[B6,1]   c280      1
    c[B6,1]   c308      1
    c[B6,1]   c336      1
    c[B6,1]   c364      1
    c[B6,1]   c392      1
    c[B6,1]   c420      1
    c[B6,1]   c604      1
    c[B6,1]   c606      1
    c[B6,1]   c608      1
    c[B6,1]   c610      1
    c[B6,1]   c612      1
    c[B6,1]   c614      1
    c[B6,1]   c616      1
    c[B6,1]   c618      1
    c[B6,1]   c620      1
    c[B6,1]   c622      1
    c[B6,1]   c624      1
    c[B6,1]   c626      1
    c[B6,1]   c628      1
    c[B6,1]   c630      1
    c[B6,1]   c866      1
    c[B6,1]   c894      1
    c[B6,1]   c922      1
    c[B6,1]   c950      1
    c[B6,1]   c978      1
    c[B6,1]   c1006     1
    c[B6,1]   c1024     -1
    c[B6,1]   c1026     -1
    c[B6,1]   c1028     -1
    c[B6,1]   c1030     -1
    c[B6,1]   c1032     -1
    c[B6,1]   c1034     -1
    c[B6,1]   c1036     -1
    c[B6,1]   c1038     -1
    c[B6,1]   c1040     -1
    c[B6,1]   c1042     -1
    c[B6,1]   c1044     -1
    c[B6,1]   c1046     -1
    c[B6,1]   c1048     -1
    c[B6,1]   c1050     -1
    c[B6,1]   c1064     1
    c[B6,1]   c1092     1
    c[B6,1]   c1120     1
    c[B6,1]   c1148     1
    c[B6,1]   c1176     1
    c[B6,1]   c1204     1
    c[B6,1]   c1232     1
    c[B6,1]   c1260     1
    c[B7,0]   c27       1
    c[B7,0]   c55       1
    c[B7,0]   c83       1
    c[B7,0]   c111      1
    c[B7,0]   c139      1
    c[B7,0]   c167      1
    c[B7,0]   c195      1
    c[B7,0]   c253      1
    c[B7,0]   c281      1
    c[B7,0]   c309      1
    c[B7,0]   c337      1
    c[B7,0]   c365      1
    c[B7,0]   c393      1
    c[B7,0]   c421      1
    c[B7,0]   c631      1
    c[B7,0]   c633      1
    c[B7,0]   c635      1
    c[B7,0]   c637      1
    c[B7,0]   c639      1
    c[B7,0]   c641      1
    c[B7,0]   c643      1
    c[B7,0]   c645      1
    c[B7,0]   c647      1
    c[B7,0]   c649      1
    c[B7,0]   c651      1
    c[B7,0]   c653      1
    c[B7,0]   c655      1
    c[B7,0]   c657      1
    c[B7,0]   c867      1
    c[B7,0]   c895      1
    c[B7,0]   c923      1
    c[B7,0]   c951      1
    c[B7,0]   c979      1
    c[B7,0]   c1007     1
    c[B7,0]   c1035     1
    c[B7,0]   c1051     -1
    c[B7,0]   c1053     -1
    c[B7,0]   c1055     -1
    c[B7,0]   c1057     -1
    c[B7,0]   c1059     -1
    c[B7,0]   c1061     -1
    c[B7,0]   c1063     -1
    c[B7,0]   c1065     -1
    c[B7,0]   c1067     -1
    c[B7,0]   c1069     -1
    c[B7,0]   c1071     -1
    c[B7,0]   c1073     -1
    c[B7,0]   c1075     -1
    c[B7,0]   c1077     -1
    c[B7,0]   c1093     1
    c[B7,0]   c1121     1
    c[B7,0]   c1149     1
    c[B7,0]   c1177     1
    c[B7,0]   c1205     1
    c[B7,0]   c1233     1
    c[B7,0]   c1261     1
    c[B7,1]   c7        -1
    c[B7,1]   c28       1
    c[B7,1]   c56       1
    c[B7,1]   c84       1
    c[B7,1]   c112      1
    c[B7,1]   c140      1
    c[B7,1]   c168      1
    c[B7,1]   c196      1
    c[B7,1]   c254      1
    c[B7,1]   c282      1
    c[B7,1]   c310      1
    c[B7,1]   c338      1
    c[B7,1]   c366      1
    c[B7,1]   c394      1
    c[B7,1]   c422      1
    c[B7,1]   c632      1
    c[B7,1]   c634      1
    c[B7,1]   c636      1
    c[B7,1]   c638      1
    c[B7,1]   c640      1
    c[B7,1]   c642      1
    c[B7,1]   c644      1
    c[B7,1]   c646      1
    c[B7,1]   c648      1
    c[B7,1]   c650      1
    c[B7,1]   c652      1
    c[B7,1]   c654      1
    c[B7,1]   c656      1
    c[B7,1]   c658      1
    c[B7,1]   c868      1
    c[B7,1]   c896      1
    c[B7,1]   c924      1
    c[B7,1]   c952      1
    c[B7,1]   c980      1
    c[B7,1]   c1008     1
    c[B7,1]   c1036     1
    c[B7,1]   c1052     -1
    c[B7,1]   c1054     -1
    c[B7,1]   c1056     -1
    c[B7,1]   c1058     -1
    c[B7,1]   c1060     -1
    c[B7,1]   c1062     -1
    c[B7,1]   c1064     -1
    c[B7,1]   c1066     -1
    c[B7,1]   c1068     -1
    c[B7,1]   c1070     -1
    c[B7,1]   c1072     -1
    c[B7,1]   c1074     -1
    c[B7,1]   c1076     -1
    c[B7,1]   c1078     -1
    c[B7,1]   c1094     1
    c[B7,1]   c1122     1
    c[B7,1]   c1150     1
    c[B7,1]   c1178     1
    c[B7,1]   c1206     1
    c[B7,1]   c1234     1
    c[B7,1]   c1262     1
    c[B8,0]   c29       1
    c[B8,0]   c57       1
    c[B8,0]   c85       1
    c[B8,0]   c113      1
    c[B8,0]   c141      1
    c[B8,0]   c169      1
    c[B8,0]   c197      1
    c[B8,0]   c225      1
    c[B8,0]   c283      1
    c[B8,0]   c311      1
    c[B8,0]   c339      1
    c[B8,0]   c367      1
    c[B8,0]   c395      1
    c[B8,0]   c423      1
    c[B8,0]   c659      1
    c[B8,0]   c661      1
    c[B8,0]   c663      1
    c[B8,0]   c665      1
    c[B8,0]   c667      1
    c[B8,0]   c669      1
    c[B8,0]   c671      1
    c[B8,0]   c673      1
    c[B8,0]   c675      1
    c[B8,0]   c677      1
    c[B8,0]   c679      1
    c[B8,0]   c681      1
    c[B8,0]   c683      1
    c[B8,0]   c685      1
    c[B8,0]   c869      1
    c[B8,0]   c897      1
    c[B8,0]   c925      1
    c[B8,0]   c953      1
    c[B8,0]   c981      1
    c[B8,0]   c1009     1
    c[B8,0]   c1037     1
    c[B8,0]   c1065     1
    c[B8,0]   c1079     -1
    c[B8,0]   c1081     -1
    c[B8,0]   c1083     -1
    c[B8,0]   c1085     -1
    c[B8,0]   c1087     -1
    c[B8,0]   c1089     -1
    c[B8,0]   c1091     -1
    c[B8,0]   c1093     -1
    c[B8,0]   c1095     -1
    c[B8,0]   c1097     -1
    c[B8,0]   c1099     -1
    c[B8,0]   c1101     -1
    c[B8,0]   c1103     -1
    c[B8,0]   c1105     -1
    c[B8,0]   c1123     1
    c[B8,0]   c1151     1
    c[B8,0]   c1179     1
    c[B8,0]   c1207     1
    c[B8,0]   c1235     1
    c[B8,0]   c1263     1
    c[B8,1]   c8        -1
    c[B8,1]   c30       1
    c[B8,1]   c58       1
    c[B8,1]   c86       1
    c[B8,1]   c114      1
    c[B8,1]   c142      1
    c[B8,1]   c170      1
    c[B8,1]   c198      1
    c[B8,1]   c226      1
    c[B8,1]   c284      1
    c[B8,1]   c312      1
    c[B8,1]   c340      1
    c[B8,1]   c368      1
    c[B8,1]   c396      1
    c[B8,1]   c424      1
    c[B8,1]   c660      1
    c[B8,1]   c662      1
    c[B8,1]   c664      1
    c[B8,1]   c666      1
    c[B8,1]   c668      1
    c[B8,1]   c670      1
    c[B8,1]   c672      1
    c[B8,1]   c674      1
    c[B8,1]   c676      1
    c[B8,1]   c678      1
    c[B8,1]   c680      1
    c[B8,1]   c682      1
    c[B8,1]   c684      1
    c[B8,1]   c686      1
    c[B8,1]   c870      1
    c[B8,1]   c898      1
    c[B8,1]   c926      1
    c[B8,1]   c954      1
    c[B8,1]   c982      1
    c[B8,1]   c1010     1
    c[B8,1]   c1038     1
    c[B8,1]   c1066     1
    c[B8,1]   c1080     -1
    c[B8,1]   c1082     -1
    c[B8,1]   c1084     -1
    c[B8,1]   c1086     -1
    c[B8,1]   c1088     -1
    c[B8,1]   c1090     -1
    c[B8,1]   c1092     -1
    c[B8,1]   c1094     -1
    c[B8,1]   c1096     -1
    c[B8,1]   c1098     -1
    c[B8,1]   c1100     -1
    c[B8,1]   c1102     -1
    c[B8,1]   c1104     -1
    c[B8,1]   c1106     -1
    c[B8,1]   c1124     1
    c[B8,1]   c1152     1
    c[B8,1]   c1180     1
    c[B8,1]   c1208     1
    c[B8,1]   c1236     1
    c[B8,1]   c1264     1
    c[B9,0]   c31       1
    c[B9,0]   c59       1
    c[B9,0]   c87       1
    c[B9,0]   c115      1
    c[B9,0]   c143      1
    c[B9,0]   c171      1
    c[B9,0]   c199      1
    c[B9,0]   c227      1
    c[B9,0]   c255      1
    c[B9,0]   c313      1
    c[B9,0]   c341      1
    c[B9,0]   c369      1
    c[B9,0]   c397      1
    c[B9,0]   c425      1
    c[B9,0]   c687      1
    c[B9,0]   c689      1
    c[B9,0]   c691      1
    c[B9,0]   c693      1
    c[B9,0]   c695      1
    c[B9,0]   c697      1
    c[B9,0]   c699      1
    c[B9,0]   c701      1
    c[B9,0]   c703      1
    c[B9,0]   c705      1
    c[B9,0]   c707      1
    c[B9,0]   c709      1
    c[B9,0]   c711      1
    c[B9,0]   c713      1
    c[B9,0]   c871      1
    c[B9,0]   c899      1
    c[B9,0]   c927      1
    c[B9,0]   c955      1
    c[B9,0]   c983      1
    c[B9,0]   c1011     1
    c[B9,0]   c1039     1
    c[B9,0]   c1067     1
    c[B9,0]   c1095     1
    c[B9,0]   c1107     -1
    c[B9,0]   c1109     -1
    c[B9,0]   c1111     -1
    c[B9,0]   c1113     -1
    c[B9,0]   c1115     -1
    c[B9,0]   c1117     -1
    c[B9,0]   c1119     -1
    c[B9,0]   c1121     -1
    c[B9,0]   c1123     -1
    c[B9,0]   c1125     -1
    c[B9,0]   c1127     -1
    c[B9,0]   c1129     -1
    c[B9,0]   c1131     -1
    c[B9,0]   c1133     -1
    c[B9,0]   c1153     1
    c[B9,0]   c1181     1
    c[B9,0]   c1209     1
    c[B9,0]   c1237     1
    c[B9,0]   c1265     1
    c[B9,1]   c9        -1
    c[B9,1]   c32       1
    c[B9,1]   c60       1
    c[B9,1]   c88       1
    c[B9,1]   c116      1
    c[B9,1]   c144      1
    c[B9,1]   c172      1
    c[B9,1]   c200      1
    c[B9,1]   c228      1
    c[B9,1]   c256      1
    c[B9,1]   c314      1
    c[B9,1]   c342      1
    c[B9,1]   c370      1
    c[B9,1]   c398      1
    c[B9,1]   c426      1
    c[B9,1]   c688      1
    c[B9,1]   c690      1
    c[B9,1]   c692      1
    c[B9,1]   c694      1
    c[B9,1]   c696      1
    c[B9,1]   c698      1
    c[B9,1]   c700      1
    c[B9,1]   c702      1
    c[B9,1]   c704      1
    c[B9,1]   c706      1
    c[B9,1]   c708      1
    c[B9,1]   c710      1
    c[B9,1]   c712      1
    c[B9,1]   c714      1
    c[B9,1]   c872      1
    c[B9,1]   c900      1
    c[B9,1]   c928      1
    c[B9,1]   c956      1
    c[B9,1]   c984      1
    c[B9,1]   c1012     1
    c[B9,1]   c1040     1
    c[B9,1]   c1068     1
    c[B9,1]   c1096     1
    c[B9,1]   c1108     -1
    c[B9,1]   c1110     -1
    c[B9,1]   c1112     -1
    c[B9,1]   c1114     -1
    c[B9,1]   c1116     -1
    c[B9,1]   c1118     -1
    c[B9,1]   c1120     -1
    c[B9,1]   c1122     -1
    c[B9,1]   c1124     -1
    c[B9,1]   c1126     -1
    c[B9,1]   c1128     -1
    c[B9,1]   c1130     -1
    c[B9,1]   c1132     -1
    c[B9,1]   c1134     -1
    c[B9,1]   c1154     1
    c[B9,1]   c1182     1
    c[B9,1]   c1210     1
    c[B9,1]   c1238     1
    c[B9,1]   c1266     1
    c[B10,0]  c33       1
    c[B10,0]  c61       1
    c[B10,0]  c89       1
    c[B10,0]  c117      1
    c[B10,0]  c145      1
    c[B10,0]  c173      1
    c[B10,0]  c201      1
    c[B10,0]  c229      1
    c[B10,0]  c257      1
    c[B10,0]  c285      1
    c[B10,0]  c343      1
    c[B10,0]  c371      1
    c[B10,0]  c399      1
    c[B10,0]  c427      1
    c[B10,0]  c715      1
    c[B10,0]  c717      1
    c[B10,0]  c719      1
    c[B10,0]  c721      1
    c[B10,0]  c723      1
    c[B10,0]  c725      1
    c[B10,0]  c727      1
    c[B10,0]  c729      1
    c[B10,0]  c731      1
    c[B10,0]  c733      1
    c[B10,0]  c735      1
    c[B10,0]  c737      1
    c[B10,0]  c739      1
    c[B10,0]  c741      1
    c[B10,0]  c873      1
    c[B10,0]  c901      1
    c[B10,0]  c929      1
    c[B10,0]  c957      1
    c[B10,0]  c985      1
    c[B10,0]  c1013     1
    c[B10,0]  c1041     1
    c[B10,0]  c1069     1
    c[B10,0]  c1097     1
    c[B10,0]  c1125     1
    c[B10,0]  c1135     -1
    c[B10,0]  c1137     -1
    c[B10,0]  c1139     -1
    c[B10,0]  c1141     -1
    c[B10,0]  c1143     -1
    c[B10,0]  c1145     -1
    c[B10,0]  c1147     -1
    c[B10,0]  c1149     -1
    c[B10,0]  c1151     -1
    c[B10,0]  c1153     -1
    c[B10,0]  c1155     -1
    c[B10,0]  c1157     -1
    c[B10,0]  c1159     -1
    c[B10,0]  c1161     -1
    c[B10,0]  c1183     1
    c[B10,0]  c1211     1
    c[B10,0]  c1239     1
    c[B10,0]  c1267     1
    c[B10,1]  c10       -1
    c[B10,1]  c34       1
    c[B10,1]  c62       1
    c[B10,1]  c90       1
    c[B10,1]  c118      1
    c[B10,1]  c146      1
    c[B10,1]  c174      1
    c[B10,1]  c202      1
    c[B10,1]  c230      1
    c[B10,1]  c258      1
    c[B10,1]  c286      1
    c[B10,1]  c344      1
    c[B10,1]  c372      1
    c[B10,1]  c400      1
    c[B10,1]  c428      1
    c[B10,1]  c716      1
    c[B10,1]  c718      1
    c[B10,1]  c720      1
    c[B10,1]  c722      1
    c[B10,1]  c724      1
    c[B10,1]  c726      1
    c[B10,1]  c728      1
    c[B10,1]  c730      1
    c[B10,1]  c732      1
    c[B10,1]  c734      1
    c[B10,1]  c736      1
    c[B10,1]  c738      1
    c[B10,1]  c740      1
    c[B10,1]  c742      1
    c[B10,1]  c874      1
    c[B10,1]  c902      1
    c[B10,1]  c930      1
    c[B10,1]  c958      1
    c[B10,1]  c986      1
    c[B10,1]  c1014     1
    c[B10,1]  c1042     1
    c[B10,1]  c1070     1
    c[B10,1]  c1098     1
    c[B10,1]  c1126     1
    c[B10,1]  c1136     -1
    c[B10,1]  c1138     -1
    c[B10,1]  c1140     -1
    c[B10,1]  c1142     -1
    c[B10,1]  c1144     -1
    c[B10,1]  c1146     -1
    c[B10,1]  c1148     -1
    c[B10,1]  c1150     -1
    c[B10,1]  c1152     -1
    c[B10,1]  c1154     -1
    c[B10,1]  c1156     -1
    c[B10,1]  c1158     -1
    c[B10,1]  c1160     -1
    c[B10,1]  c1162     -1
    c[B10,1]  c1184     1
    c[B10,1]  c1212     1
    c[B10,1]  c1240     1
    c[B10,1]  c1268     1
    c[B11,0]  c35       1
    c[B11,0]  c63       1
    c[B11,0]  c91       1
    c[B11,0]  c119      1
    c[B11,0]  c147      1
    c[B11,0]  c175      1
    c[B11,0]  c203      1
    c[B11,0]  c231      1
    c[B11,0]  c259      1
    c[B11,0]  c287      1
    c[B11,0]  c315      1
    c[B11,0]  c373      1
    c[B11,0]  c401      1
    c[B11,0]  c429      1
    c[B11,0]  c743      1
    c[B11,0]  c745      1
    c[B11,0]  c747      1
    c[B11,0]  c749      1
    c[B11,0]  c751      1
    c[B11,0]  c753      1
    c[B11,0]  c755      1
    c[B11,0]  c757      1
    c[B11,0]  c759      1
    c[B11,0]  c761      1
    c[B11,0]  c763      1
    c[B11,0]  c765      1
    c[B11,0]  c767      1
    c[B11,0]  c769      1
    c[B11,0]  c875      1
    c[B11,0]  c903      1
    c[B11,0]  c931      1
    c[B11,0]  c959      1
    c[B11,0]  c987      1
    c[B11,0]  c1015     1
    c[B11,0]  c1043     1
    c[B11,0]  c1071     1
    c[B11,0]  c1099     1
    c[B11,0]  c1127     1
    c[B11,0]  c1155     1
    c[B11,0]  c1163     -1
    c[B11,0]  c1165     -1
    c[B11,0]  c1167     -1
    c[B11,0]  c1169     -1
    c[B11,0]  c1171     -1
    c[B11,0]  c1173     -1
    c[B11,0]  c1175     -1
    c[B11,0]  c1177     -1
    c[B11,0]  c1179     -1
    c[B11,0]  c1181     -1
    c[B11,0]  c1183     -1
    c[B11,0]  c1185     -1
    c[B11,0]  c1187     -1
    c[B11,0]  c1189     -1
    c[B11,0]  c1213     1
    c[B11,0]  c1241     1
    c[B11,0]  c1269     1
    c[B11,1]  c11       -1
    c[B11,1]  c36       1
    c[B11,1]  c64       1
    c[B11,1]  c92       1
    c[B11,1]  c120      1
    c[B11,1]  c148      1
    c[B11,1]  c176      1
    c[B11,1]  c204      1
    c[B11,1]  c232      1
    c[B11,1]  c260      1
    c[B11,1]  c288      1
    c[B11,1]  c316      1
    c[B11,1]  c374      1
    c[B11,1]  c402      1
    c[B11,1]  c430      1
    c[B11,1]  c744      1
    c[B11,1]  c746      1
    c[B11,1]  c748      1
    c[B11,1]  c750      1
    c[B11,1]  c752      1
    c[B11,1]  c754      1
    c[B11,1]  c756      1
    c[B11,1]  c758      1
    c[B11,1]  c760      1
    c[B11,1]  c762      1
    c[B11,1]  c764      1
    c[B11,1]  c766      1
    c[B11,1]  c768      1
    c[B11,1]  c770      1
    c[B11,1]  c876      1
    c[B11,1]  c904      1
    c[B11,1]  c932      1
    c[B11,1]  c960      1
    c[B11,1]  c988      1
    c[B11,1]  c1016     1
    c[B11,1]  c1044     1
    c[B11,1]  c1072     1
    c[B11,1]  c1100     1
    c[B11,1]  c1128     1
    c[B11,1]  c1156     1
    c[B11,1]  c1164     -1
    c[B11,1]  c1166     -1
    c[B11,1]  c1168     -1
    c[B11,1]  c1170     -1
    c[B11,1]  c1172     -1
    c[B11,1]  c1174     -1
    c[B11,1]  c1176     -1
    c[B11,1]  c1178     -1
    c[B11,1]  c1180     -1
    c[B11,1]  c1182     -1
    c[B11,1]  c1184     -1
    c[B11,1]  c1186     -1
    c[B11,1]  c1188     -1
    c[B11,1]  c1190     -1
    c[B11,1]  c1214     1
    c[B11,1]  c1242     1
    c[B11,1]  c1270     1
    c[B12,0]  c37       1
    c[B12,0]  c65       1
    c[B12,0]  c93       1
    c[B12,0]  c121      1
    c[B12,0]  c149      1
    c[B12,0]  c177      1
    c[B12,0]  c205      1
    c[B12,0]  c233      1
    c[B12,0]  c261      1
    c[B12,0]  c289      1
    c[B12,0]  c317      1
    c[B12,0]  c345      1
    c[B12,0]  c403      1
    c[B12,0]  c431      1
    c[B12,0]  c771      1
    c[B12,0]  c773      1
    c[B12,0]  c775      1
    c[B12,0]  c777      1
    c[B12,0]  c779      1
    c[B12,0]  c781      1
    c[B12,0]  c783      1
    c[B12,0]  c785      1
    c[B12,0]  c787      1
    c[B12,0]  c789      1
    c[B12,0]  c791      1
    c[B12,0]  c793      1
    c[B12,0]  c795      1
    c[B12,0]  c797      1
    c[B12,0]  c877      1
    c[B12,0]  c905      1
    c[B12,0]  c933      1
    c[B12,0]  c961      1
    c[B12,0]  c989      1
    c[B12,0]  c1017     1
    c[B12,0]  c1045     1
    c[B12,0]  c1073     1
    c[B12,0]  c1101     1
    c[B12,0]  c1129     1
    c[B12,0]  c1157     1
    c[B12,0]  c1185     1
    c[B12,0]  c1191     -1
    c[B12,0]  c1193     -1
    c[B12,0]  c1195     -1
    c[B12,0]  c1197     -1
    c[B12,0]  c1199     -1
    c[B12,0]  c1201     -1
    c[B12,0]  c1203     -1
    c[B12,0]  c1205     -1
    c[B12,0]  c1207     -1
    c[B12,0]  c1209     -1
    c[B12,0]  c1211     -1
    c[B12,0]  c1213     -1
    c[B12,0]  c1215     -1
    c[B12,0]  c1217     -1
    c[B12,0]  c1243     1
    c[B12,0]  c1271     1
    c[B12,1]  c12       -1
    c[B12,1]  c38       1
    c[B12,1]  c66       1
    c[B12,1]  c94       1
    c[B12,1]  c122      1
    c[B12,1]  c150      1
    c[B12,1]  c178      1
    c[B12,1]  c206      1
    c[B12,1]  c234      1
    c[B12,1]  c262      1
    c[B12,1]  c290      1
    c[B12,1]  c318      1
    c[B12,1]  c346      1
    c[B12,1]  c404      1
    c[B12,1]  c432      1
    c[B12,1]  c772      1
    c[B12,1]  c774      1
    c[B12,1]  c776      1
    c[B12,1]  c778      1
    c[B12,1]  c780      1
    c[B12,1]  c782      1
    c[B12,1]  c784      1
    c[B12,1]  c786      1
    c[B12,1]  c788      1
    c[B12,1]  c790      1
    c[B12,1]  c792      1
    c[B12,1]  c794      1
    c[B12,1]  c796      1
    c[B12,1]  c798      1
    c[B12,1]  c878      1
    c[B12,1]  c906      1
    c[B12,1]  c934      1
    c[B12,1]  c962      1
    c[B12,1]  c990      1
    c[B12,1]  c1018     1
    c[B12,1]  c1046     1
    c[B12,1]  c1074     1
    c[B12,1]  c1102     1
    c[B12,1]  c1130     1
    c[B12,1]  c1158     1
    c[B12,1]  c1186     1
    c[B12,1]  c1192     -1
    c[B12,1]  c1194     -1
    c[B12,1]  c1196     -1
    c[B12,1]  c1198     -1
    c[B12,1]  c1200     -1
    c[B12,1]  c1202     -1
    c[B12,1]  c1204     -1
    c[B12,1]  c1206     -1
    c[B12,1]  c1208     -1
    c[B12,1]  c1210     -1
    c[B12,1]  c1212     -1
    c[B12,1]  c1214     -1
    c[B12,1]  c1216     -1
    c[B12,1]  c1218     -1
    c[B12,1]  c1244     1
    c[B12,1]  c1272     1
    c[B13,0]  c39       1
    c[B13,0]  c67       1
    c[B13,0]  c95       1
    c[B13,0]  c123      1
    c[B13,0]  c151      1
    c[B13,0]  c179      1
    c[B13,0]  c207      1
    c[B13,0]  c235      1
    c[B13,0]  c263      1
    c[B13,0]  c291      1
    c[B13,0]  c319      1
    c[B13,0]  c347      1
    c[B13,0]  c375      1
    c[B13,0]  c433      1
    c[B13,0]  c799      1
    c[B13,0]  c801      1
    c[B13,0]  c803      1
    c[B13,0]  c805      1
    c[B13,0]  c807      1
    c[B13,0]  c809      1
    c[B13,0]  c811      1
    c[B13,0]  c813      1
    c[B13,0]  c815      1
    c[B13,0]  c817      1
    c[B13,0]  c819      1
    c[B13,0]  c821      1
    c[B13,0]  c823      1
    c[B13,0]  c825      1
    c[B13,0]  c879      1
    c[B13,0]  c907      1
    c[B13,0]  c935      1
    c[B13,0]  c963      1
    c[B13,0]  c991      1
    c[B13,0]  c1019     1
    c[B13,0]  c1047     1
    c[B13,0]  c1075     1
    c[B13,0]  c1103     1
    c[B13,0]  c1131     1
    c[B13,0]  c1159     1
    c[B13,0]  c1187     1
    c[B13,0]  c1215     1
    c[B13,0]  c1219     -1
    c[B13,0]  c1221     -1
    c[B13,0]  c1223     -1
    c[B13,0]  c1225     -1
    c[B13,0]  c1227     -1
    c[B13,0]  c1229     -1
    c[B13,0]  c1231     -1
    c[B13,0]  c1233     -1
    c[B13,0]  c1235     -1
    c[B13,0]  c1237     -1
    c[B13,0]  c1239     -1
    c[B13,0]  c1241     -1
    c[B13,0]  c1243     -1
    c[B13,0]  c1245     -1
    c[B13,0]  c1273     1
    c[B13,1]  c13       -1
    c[B13,1]  c40       1
    c[B13,1]  c68       1
    c[B13,1]  c96       1
    c[B13,1]  c124      1
    c[B13,1]  c152      1
    c[B13,1]  c180      1
    c[B13,1]  c208      1
    c[B13,1]  c236      1
    c[B13,1]  c264      1
    c[B13,1]  c292      1
    c[B13,1]  c320      1
    c[B13,1]  c348      1
    c[B13,1]  c376      1
    c[B13,1]  c434      1
    c[B13,1]  c800      1
    c[B13,1]  c802      1
    c[B13,1]  c804      1
    c[B13,1]  c806      1
    c[B13,1]  c808      1
    c[B13,1]  c810      1
    c[B13,1]  c812      1
    c[B13,1]  c814      1
    c[B13,1]  c816      1
    c[B13,1]  c818      1
    c[B13,1]  c820      1
    c[B13,1]  c822      1
    c[B13,1]  c824      1
    c[B13,1]  c826      1
    c[B13,1]  c880      1
    c[B13,1]  c908      1
    c[B13,1]  c936      1
    c[B13,1]  c964      1
    c[B13,1]  c992      1
    c[B13,1]  c1020     1
    c[B13,1]  c1048     1
    c[B13,1]  c1076     1
    c[B13,1]  c1104     1
    c[B13,1]  c1132     1
    c[B13,1]  c1160     1
    c[B13,1]  c1188     1
    c[B13,1]  c1216     1
    c[B13,1]  c1220     -1
    c[B13,1]  c1222     -1
    c[B13,1]  c1224     -1
    c[B13,1]  c1226     -1
    c[B13,1]  c1228     -1
    c[B13,1]  c1230     -1
    c[B13,1]  c1232     -1
    c[B13,1]  c1234     -1
    c[B13,1]  c1236     -1
    c[B13,1]  c1238     -1
    c[B13,1]  c1240     -1
    c[B13,1]  c1242     -1
    c[B13,1]  c1244     -1
    c[B13,1]  c1246     -1
    c[B13,1]  c1274     1
    c[B14,0]  c41       1
    c[B14,0]  c69       1
    c[B14,0]  c97       1
    c[B14,0]  c125      1
    c[B14,0]  c153      1
    c[B14,0]  c181      1
    c[B14,0]  c209      1
    c[B14,0]  c237      1
    c[B14,0]  c265      1
    c[B14,0]  c293      1
    c[B14,0]  c321      1
    c[B14,0]  c349      1
    c[B14,0]  c377      1
    c[B14,0]  c405      1
    c[B14,0]  c827      1
    c[B14,0]  c829      1
    c[B14,0]  c831      1
    c[B14,0]  c833      1
    c[B14,0]  c835      1
    c[B14,0]  c837      1
    c[B14,0]  c839      1
    c[B14,0]  c841      1
    c[B14,0]  c843      1
    c[B14,0]  c845      1
    c[B14,0]  c847      1
    c[B14,0]  c849      1
    c[B14,0]  c851      1
    c[B14,0]  c853      1
    c[B14,0]  c881      1
    c[B14,0]  c909      1
    c[B14,0]  c937      1
    c[B14,0]  c965      1
    c[B14,0]  c993      1
    c[B14,0]  c1021     1
    c[B14,0]  c1049     1
    c[B14,0]  c1077     1
    c[B14,0]  c1105     1
    c[B14,0]  c1133     1
    c[B14,0]  c1161     1
    c[B14,0]  c1189     1
    c[B14,0]  c1217     1
    c[B14,0]  c1245     1
    c[B14,0]  c1247     -1
    c[B14,0]  c1249     -1
    c[B14,0]  c1251     -1
    c[B14,0]  c1253     -1
    c[B14,0]  c1255     -1
    c[B14,0]  c1257     -1
    c[B14,0]  c1259     -1
    c[B14,0]  c1261     -1
    c[B14,0]  c1263     -1
    c[B14,0]  c1265     -1
    c[B14,0]  c1267     -1
    c[B14,0]  c1269     -1
    c[B14,0]  c1271     -1
    c[B14,0]  c1273     -1
    c[B14,1]  c14       -1
    c[B14,1]  c42       1
    c[B14,1]  c70       1
    c[B14,1]  c98       1
    c[B14,1]  c126      1
    c[B14,1]  c154      1
    c[B14,1]  c182      1
    c[B14,1]  c210      1
    c[B14,1]  c238      1
    c[B14,1]  c266      1
    c[B14,1]  c294      1
    c[B14,1]  c322      1
    c[B14,1]  c350      1
    c[B14,1]  c378      1
    c[B14,1]  c406      1
    c[B14,1]  c828      1
    c[B14,1]  c830      1
    c[B14,1]  c832      1
    c[B14,1]  c834      1
    c[B14,1]  c836      1
    c[B14,1]  c838      1
    c[B14,1]  c840      1
    c[B14,1]  c842      1
    c[B14,1]  c844      1
    c[B14,1]  c846      1
    c[B14,1]  c848      1
    c[B14,1]  c850      1
    c[B14,1]  c852      1
    c[B14,1]  c854      1
    c[B14,1]  c882      1
    c[B14,1]  c910      1
    c[B14,1]  c938      1
    c[B14,1]  c966      1
    c[B14,1]  c994      1
    c[B14,1]  c1022     1
    c[B14,1]  c1050     1
    c[B14,1]  c1078     1
    c[B14,1]  c1106     1
    c[B14,1]  c1134     1
    c[B14,1]  c1162     1
    c[B14,1]  c1190     1
    c[B14,1]  c1218     1
    c[B14,1]  c1246     1
    c[B14,1]  c1248     -1
    c[B14,1]  c1250     -1
    c[B14,1]  c1252     -1
    c[B14,1]  c1254     -1
    c[B14,1]  c1256     -1
    c[B14,1]  c1258     -1
    c[B14,1]  c1260     -1
    c[B14,1]  c1262     -1
    c[B14,1]  c1264     -1
    c[B14,1]  c1266     -1
    c[B14,1]  c1268     -1
    c[B14,1]  c1270     -1
    c[B14,1]  c1272     -1
    c[B14,1]  c1274     -1
    h         OBJ       1
    h         c0        1
    h         c1        1
    h         c2        1
    h         c3        1
    h         c4        1
    h         c5        1
    h         c6        1
    h         c7        1
    h         c8        1
    h         c9        1
    h         c10       1
    h         c11       1
    h         c12       1
    h         c13       1
    h         c14       1
    MARKER    'MARKER'                 'INTORG'
    delta[B0,B1]  c15       20
    delta[B0,B1]  c16       -10
    delta[B0,B1]  c43       -9
    delta[B0,B1]  c44       8
    delta[B0,B1]  c435      -10
    delta[B0,B1]  c436      8
    delta[B0,B1]  c463      19
    delta[B0,B1]  c464      -10
    delta[B0,B1]  c855      100
    delta[B0,B1]  c856      -10000
    delta[B0,B1]  c883      -99
    delta[B0,B1]  c884      10000
    delta[B0,B2]  c17       20
    delta[B0,B2]  c18       -7
    delta[B0,B2]  c71       -10
    delta[B0,B2]  c72       21
    delta[B0,B2]  c437      -15
    delta[B0,B2]  c438      18
    delta[B0,B2]  c491      15
    delta[B0,B2]  c492      -10
    delta[B0,B2]  c857      100
    delta[B0,B2]  c858      -9997
    delta[B0,B2]  c911      -95
    delta[B0,B2]  c912      10000
    delta[B0,B3]  c19       20
    delta[B0,B3]  c20       -10
    delta[B0,B3]  c99       -27
    delta[B0,B3]  c100      21
    delta[B0,B3]  c439      -35
    delta[B0,B3]  c440      21
    delta[B0,B3]  c519      12
    delta[B0,B3]  c520      -10
    delta[B0,B3]  c859      100
    delta[B0,B3]  c860      -10000
    delta[B0,B3]  c939      -92
    delta[B0,B3]  c940      10000
    delta[B0,B4]  c21       20
    delta[B0,B4]  c22       -10
    delta[B0,B4]  c127      -17
    delta[B0,B4]  c128      19
    delta[B0,B4]  c441      -25
    delta[B0,B4]  c442      19
    delta[B0,B4]  c547      12
    delta[B0,B4]  c548      -10
    delta[B0,B4]  c861      100
    delta[B0,B4]  c862      -10000
    delta[B0,B4]  c967      -92
    delta[B0,B4]  c968      10000
    delta[B0,B5]  c23       20
    delta[B0,B5]  c24       -7
    delta[B0,B5]  c155      -9
    delta[B0,B5]  c156      13
    delta[B0,B5]  c443      -9
    delta[B0,B5]  c444      10
    delta[B0,B5]  c575      20
    delta[B0,B5]  c576      -10
    delta[B0,B5]  c863      100
    delta[B0,B5]  c864      -9997
    delta[B0,B5]  c995      -100
    delta[B0,B5]  c996      10000
    delta[B0,B6]  c25       20
    delta[B0,B6]  c26       -7
    delta[B0,B6]  c183      -13
    delta[B0,B6]  c184      25
    delta[B0,B6]  c445      -13
    delta[B0,B6]  c446      22
    delta[B0,B6]  c603      20
    delta[B0,B6]  c604      -10
    delta[B0,B6]  c865      100
    delta[B0,B6]  c866      -9997
    delta[B0,B6]  c1023     -100
    delta[B0,B6]  c1024     10000
    delta[B0,B7]  c27       20
    delta[B0,B7]  c28       -10
    delta[B0,B7]  c211      -19
    delta[B0,B7]  c212      12
    delta[B0,B7]  c447      -20
    delta[B0,B7]  c448      12
    delta[B0,B7]  c631      19
    delta[B0,B7]  c632      -10
    delta[B0,B7]  c867      100
    delta[B0,B7]  c868      -10000
    delta[B0,B7]  c1051     -99
    delta[B0,B7]  c1052     10000
    delta[B0,B8]  c29       20
    delta[B0,B8]  c30       -10
    delta[B0,B8]  c239      -30
    delta[B0,B8]  c240      12
    delta[B0,B8]  c449      -38
    delta[B0,B8]  c450      12
    delta[B0,B8]  c659      12
    delta[B0,B8]  c660      -10
    delta[B0,B8]  c869      100
    delta[B0,B8]  c870      -10000
    delta[B0,B8]  c1079     -92
    delta[B0,B8]  c1080     10000
    delta[B0,B9]  c31       20
    delta[B0,B9]  c32       -7
    delta[B0,B9]  c267      -5
    delta[B0,B9]  c268      30
    delta[B0,B9]  c451      -8
    delta[B0,B9]  c452      27
    delta[B0,B9]  c687      17
    delta[B0,B9]  c688      -10
    delta[B0,B9]  c871      100
    delta[B0,B9]  c872      -9997
    delta[B0,B9]  c1107     -97
    delta[B0,B9]  c1108     10000
    delta[B0,B10]  c33       20
    delta[B0,B10]  c34       -7
    delta[B0,B10]  c295      -31
    delta[B0,B10]  c296      20
    delta[B0,B10]  c453      -31
    delta[B0,B10]  c454      17
    delta[B0,B10]  c715      20
    delta[B0,B10]  c716      -10
    delta[B0,B10]  c873      100
    delta[B0,B10]  c874      -9997
    delta[B0,B10]  c1135     -100
    delta[B0,B10]  c1136     10000
    delta[B0,B11]  c35       20
    delta[B0,B11]  c36       -7
    delta[B0,B11]  c323      -8
    delta[B0,B11]  c324      13
    delta[B0,B11]  c455      -8
    delta[B0,B11]  c456      10
    delta[B0,B11]  c743      20
    delta[B0,B11]  c744      -10
    delta[B0,B11]  c875      100
    delta[B0,B11]  c876      -9997
    delta[B0,B11]  c1163     -100
    delta[B0,B11]  c1164     10000
    delta[B0,B12]  c37       20
    delta[B0,B12]  c38       -7
    delta[B0,B12]  c351      -12
    delta[B0,B12]  c352      23
    delta[B0,B12]  c457      -12
    delta[B0,B12]  c458      20
    delta[B0,B12]  c771      20
    delta[B0,B12]  c772      -10
    delta[B0,B12]  c877      100
    delta[B0,B12]  c878      -9997
    delta[B0,B12]  c1191     -100
    delta[B0,B12]  c1192     10000
    delta[B0,B13]  c39       20
    delta[B0,B13]  c40       -7
    delta[B0,B13]  c379      -11
    delta[B0,B13]  c380      21
    delta[B0,B13]  c459      -11
    delta[B0,B13]  c460      18
    delta[B0,B13]  c799      20
    delta[B0,B13]  c800      -10
    delta[B0,B13]  c879      100
    delta[B0,B13]  c880      -9997
    delta[B0,B13]  c1219     -100
    delta[B0,B13]  c1220     10000
    delta[B0,B14]  c41       20
    delta[B0,B14]  c42       -7
    delta[B0,B14]  c407      -14
    delta[B0,B14]  c408      24
    delta[B0,B14]  c461      -14
    delta[B0,B14]  c462      21
    delta[B0,B14]  c827      20
    delta[B0,B14]  c828      -10
    delta[B0,B14]  c881      100
    delta[B0,B14]  c882      -9997
    delta[B0,B14]  c1247     -100
    delta[B0,B14]  c1248     10000
    delta[B1,B0]  c15       20
    delta[B1,B0]  c16       10
    delta[B1,B0]  c43       -9
    delta[B1,B0]  c44       -8
    delta[B1,B0]  c435      -10
    delta[B1,B0]  c436      -8
    delta[B1,B0]  c463      19
    delta[B1,B0]  c464      10
    delta[B1,B0]  c855      100
    delta[B1,B0]  c856      10000
    delta[B1,B0]  c883      -99
    delta[B1,B0]  c884      -10000
    delta[B1,B2]  c45       10
    delta[B1,B2]  c46       -7
    delta[B1,B2]  c73       -15
    delta[B1,B2]  c74       21
    delta[B1,B2]  c465      -15
    delta[B1,B2]  c466      20
    delta[B1,B2]  c493      10
    delta[B1,B2]  c494      -8
    delta[B1,B2]  c885      100
    delta[B1,B2]  c886      -9999
    delta[B1,B2]  c913      -100
    delta[B1,B2]  c914      10000
    delta[B1,B3]  c47       9
    delta[B1,B3]  c48       -8
    delta[B1,B3]  c101      -35
    delta[B1,B3]  c102      21
    delta[B1,B3]  c467      -34
    delta[B1,B3]  c468      21
    delta[B1,B3]  c521      10
    delta[B1,B3]  c522      -8
    delta[B1,B3]  c887      99
    delta[B1,B3]  c888      -10000
    delta[B1,B3]  c941      -100
    delta[B1,B3]  c942      10000
    delta[B1,B4]  c49       10
    delta[B1,B4]  c50       -8
    delta[B1,B4]  c129      -25
    delta[B1,B4]  c130      19
    delta[B1,B4]  c469      -25
    delta[B1,B4]  c470      19
    delta[B1,B4]  c549      10
    delta[B1,B4]  c550      -8
    delta[B1,B4]  c889      100
    delta[B1,B4]  c890      -10000
    delta[B1,B4]  c969      -100
    delta[B1,B4]  c970      10000
    delta[B1,B5]  c51       9
    delta[B1,B5]  c52       -7
    delta[B1,B5]  c157      -9
    delta[B1,B5]  c158      13
    delta[B1,B5]  c471      -8
    delta[B1,B5]  c472      12
    delta[B1,B5]  c577      10
    delta[B1,B5]  c578      -8
    delta[B1,B5]  c891      99
    delta[B1,B5]  c892      -9999
    delta[B1,B5]  c997      -100
    delta[B1,B5]  c998      10000
    delta[B1,B6]  c53       9
    delta[B1,B6]  c54       -7
    delta[B1,B6]  c185      -13
    delta[B1,B6]  c186      25
    delta[B1,B6]  c473      -12
    delta[B1,B6]  c474      24
    delta[B1,B6]  c605      10
    delta[B1,B6]  c606      -8
    delta[B1,B6]  c893      99
    delta[B1,B6]  c894      -9999
    delta[B1,B6]  c1025     -100
    delta[B1,B6]  c1026     10000
    delta[B1,B7]  c55       9
    delta[B1,B7]  c56       -8
    delta[B1,B7]  c213      -20
    delta[B1,B7]  c214      12
    delta[B1,B7]  c475      -19
    delta[B1,B7]  c476      12
    delta[B1,B7]  c633      10
    delta[B1,B7]  c634      -8
    delta[B1,B7]  c895      99
    delta[B1,B7]  c896      -10000
    delta[B1,B7]  c1053     -100
    delta[B1,B7]  c1054     10000
    delta[B1,B8]  c57       9
    delta[B1,B8]  c58       -8
    delta[B1,B8]  c241      -38
    delta[B1,B8]  c242      12
    delta[B1,B8]  c477      -37
    delta[B1,B8]  c478      12
    delta[B1,B8]  c661      10
    delta[B1,B8]  c662      -8
    delta[B1,B8]  c897      99
    delta[B1,B8]  c898      -10000
    delta[B1,B8]  c1081     -100
    delta[B1,B8]  c1082     10000
    delta[B1,B9]  c59       10
    delta[B1,B9]  c60       -7
    delta[B1,B9]  c269      -8
    delta[B1,B9]  c270      30
    delta[B1,B9]  c479      -8
    delta[B1,B9]  c480      29
    delta[B1,B9]  c689      10
    delta[B1,B9]  c690      -8
    delta[B1,B9]  c899      100
    delta[B1,B9]  c900      -9999
    delta[B1,B9]  c1109     -100
    delta[B1,B9]  c1110     10000
    delta[B1,B10]  c61       9
    delta[B1,B10]  c62       -7
    delta[B1,B10]  c297      -31
    delta[B1,B10]  c298      20
    delta[B1,B10]  c481      -30
    delta[B1,B10]  c482      19
    delta[B1,B10]  c717      10
    delta[B1,B10]  c718      -8
    delta[B1,B10]  c901      99
    delta[B1,B10]  c902      -9999
    delta[B1,B10]  c1137     -100
    delta[B1,B10]  c1138     10000
    delta[B1,B11]  c63       10
    delta[B1,B11]  c64       -7
    delta[B1,B11]  c325      -8
    delta[B1,B11]  c326      13
    delta[B1,B11]  c483      -8
    delta[B1,B11]  c484      12
    delta[B1,B11]  c745      10
    delta[B1,B11]  c746      -8
    delta[B1,B11]  c903      100
    delta[B1,B11]  c904      -9999
    delta[B1,B11]  c1165     -100
    delta[B1,B11]  c1166     10000
    delta[B1,B12]  c65       9
    delta[B1,B12]  c66       -7
    delta[B1,B12]  c353      -12
    delta[B1,B12]  c354      23
    delta[B1,B12]  c485      -11
    delta[B1,B12]  c486      22
    delta[B1,B12]  c773      10
    delta[B1,B12]  c774      -8
    delta[B1,B12]  c905      99
    delta[B1,B12]  c906      -9999
    delta[B1,B12]  c1193     -100
    delta[B1,B12]  c1194     10000
    delta[B1,B13]  c67       9
    delta[B1,B13]  c68       -7
    delta[B1,B13]  c381      -11
    delta[B1,B13]  c382      21
    delta[B1,B13]  c487      -10
    delta[B1,B13]  c488      20
    delta[B1,B13]  c801      10
    delta[B1,B13]  c802      -8
    delta[B1,B13]  c907      99
    delta[B1,B13]  c908      -9999
    delta[B1,B13]  c1221     -100
    delta[B1,B13]  c1222     10000
    delta[B1,B14]  c69       9
    delta[B1,B14]  c70       -7
    delta[B1,B14]  c409      -14
    delta[B1,B14]  c410      24
    delta[B1,B14]  c489      -13
    delta[B1,B14]  c490      23
    delta[B1,B14]  c829      10
    delta[B1,B14]  c830      -8
    delta[B1,B14]  c909      99
    delta[B1,B14]  c910      -9999
    delta[B1,B14]  c1249     -100
    delta[B1,B14]  c1250     10000
    delta[B2,B0]  c17       20
    delta[B2,B0]  c18       7
    delta[B2,B0]  c71       -10
    delta[B2,B0]  c72       -21
    delta[B2,B0]  c437      -15
    delta[B2,B0]  c438      -18
    delta[B2,B0]  c491      15
    delta[B2,B0]  c492      10
    delta[B2,B0]  c857      100
    delta[B2,B0]  c858      9997
    delta[B2,B0]  c911      -95
    delta[B2,B0]  c912      -10000
    delta[B2,B1]  c45       10
    delta[B2,B1]  c46       7
    delta[B2,B1]  c73       -15
    delta[B2,B1]  c74       -21
    delta[B2,B1]  c465      -15
    delta[B2,B1]  c466      -20
    delta[B2,B1]  c493      10
    delta[B2,B1]  c494      8
    delta[B2,B1]  c885      100
    delta[B2,B1]  c886      9999
    delta[B2,B1]  c913      -100
    delta[B2,B1]  c914      -10000
    delta[B2,B3]  c75       10
    delta[B2,B3]  c76       -21
    delta[B2,B3]  c103      -35
    delta[B2,B3]  c104      21
    delta[B2,B3]  c495      -30
    delta[B2,B3]  c496      21
    delta[B2,B3]  c523      15
    delta[B2,B3]  c524      -21
    delta[B2,B3]  c915      95
    delta[B2,B3]  c916      -10000
    delta[B2,B3]  c943      -100
    delta[B2,B3]  c944      10000
    delta[B2,B4]  c77       15
    delta[B2,B4]  c78       -21
    delta[B2,B4]  c131      -25
    delta[B2,B4]  c132      19
    delta[B2,B4]  c497      -25
    delta[B2,B4]  c498      19
    delta[B2,B4]  c551      15
    delta[B2,B4]  c552      -21
    delta[B2,B4]  c917      100
    delta[B2,B4]  c918      -10000
    delta[B2,B4]  c971      -100
    delta[B2,B4]  c972      10000
    delta[B2,B5]  c79       13
    delta[B2,B5]  c80       -20
    delta[B2,B5]  c159      -9
    delta[B2,B5]  c160      13
    delta[B2,B5]  c499      -7
    delta[B2,B5]  c500      12
    delta[B2,B5]  c579      15
    delta[B2,B5]  c580      -21
    delta[B2,B5]  c919      98
    delta[B2,B5]  c920      -9999
    delta[B2,B5]  c999      -100
    delta[B2,B5]  c1000     10000
    delta[B2,B6]  c81       14
    delta[B2,B6]  c82       -20
    delta[B2,B6]  c187      -13
    delta[B2,B6]  c188      17
    delta[B2,B6]  c501      -12
    delta[B2,B6]  c502      24
    delta[B2,B6]  c607      15
    delta[B2,B6]  c608      -13
    delta[B2,B6]  c921      99
    delta[B2,B6]  c922      -9999
    delta[B2,B6]  c1027     -100
    delta[B2,B6]  c1028     9992
    delta[B2,B7]  c83       10
    delta[B2,B7]  c84       -21
    delta[B2,B7]  c215      -20
    delta[B2,B7]  c216      12
    delta[B2,B7]  c503      -15
    delta[B2,B7]  c504      12
    delta[B2,B7]  c635      15
    delta[B2,B7]  c636      -21
    delta[B2,B7]  c923      95
    delta[B2,B7]  c924      -10000
    delta[B2,B7]  c1055     -100
    delta[B2,B7]  c1056     10000
    delta[B2,B8]  c85       10
    delta[B2,B8]  c86       -21
    delta[B2,B8]  c243      -38
    delta[B2,B8]  c244      12
    delta[B2,B8]  c505      -33
    delta[B2,B8]  c506      12
    delta[B2,B8]  c663      15
    delta[B2,B8]  c664      -21
    delta[B2,B8]  c925      95
    delta[B2,B8]  c926      -10000
    delta[B2,B8]  c1083     -100
    delta[B2,B8]  c1084     10000
    delta[B2,B9]  c87       15
    delta[B2,B9]  c88       -20
    delta[B2,B9]  c271      -8
    delta[B2,B9]  c272      22
    delta[B2,B9]  c507      -8
    delta[B2,B9]  c508      29
    delta[B2,B9]  c691      15
    delta[B2,B9]  c692      -13
    delta[B2,B9]  c927      100
    delta[B2,B9]  c928      -9999
    delta[B2,B9]  c1111     -100
    delta[B2,B9]  c1112     9992
    delta[B2,B10]  c89       -10
    delta[B2,B10]  c90       -20
    delta[B2,B10]  c299      31
    delta[B2,B10]  c300      20
    delta[B2,B10]  c509      26
    delta[B2,B10]  c510      19
    delta[B2,B10]  c719      -15
    delta[B2,B10]  c720      -21
    delta[B2,B10]  c929      -95
    delta[B2,B10]  c930      -9999
    delta[B2,B10]  c1139     100
    delta[B2,B10]  c1140     10000
    delta[B2,B11]  c91       -15
    delta[B2,B11]  c92       -20
    delta[B2,B11]  c327      8
    delta[B2,B11]  c328      13
    delta[B2,B11]  c511      8
    delta[B2,B11]  c512      12
    delta[B2,B11]  c747      -15
    delta[B2,B11]  c748      -21
    delta[B2,B11]  c931      -100
    delta[B2,B11]  c932      -9999
    delta[B2,B11]  c1167     100
    delta[B2,B11]  c1168     10000
    delta[B2,B12]  c93       -11
    delta[B2,B12]  c94       -20
    delta[B2,B12]  c355      12
    delta[B2,B12]  c356      23
    delta[B2,B12]  c513      8
    delta[B2,B12]  c514      22
    delta[B2,B12]  c775      -15
    delta[B2,B12]  c776      -21
    delta[B2,B12]  c933      -96
    delta[B2,B12]  c934      -9999
    delta[B2,B12]  c1195     100
    delta[B2,B12]  c1196     10000
    delta[B2,B13]  c95       -12
    delta[B2,B13]  c96       -20
    delta[B2,B13]  c383      11
    delta[B2,B13]  c384      16
    delta[B2,B13]  c515      8
    delta[B2,B13]  c516      20
    delta[B2,B13]  c803      -15
    delta[B2,B13]  c804      -16
    delta[B2,B13]  c935      -97
    delta[B2,B13]  c936      -9999
    delta[B2,B13]  c1223     100
    delta[B2,B13]  c1224     9995
    delta[B2,B14]  c97       -14
    delta[B2,B14]  c98       -20
    delta[B2,B14]  c411      14
    delta[B2,B14]  c412      16
    delta[B2,B14]  c517      13
    delta[B2,B14]  c518      23
    delta[B2,B14]  c831      -15
    delta[B2,B14]  c832      -13
    delta[B2,B14]  c937      -99
    delta[B2,B14]  c938      -9999
    delta[B2,B14]  c1251     100
    delta[B2,B14]  c1252     9992
    delta[B3,B0]  c19       20
    delta[B3,B0]  c20       10
    delta[B3,B0]  c99       -27
    delta[B3,B0]  c100      -21
    delta[B3,B0]  c439      -35
    delta[B3,B0]  c440      -21
    delta[B3,B0]  c519      12
    delta[B3,B0]  c520      10
    delta[B3,B0]  c859      100
    delta[B3,B0]  c860      10000
    delta[B3,B0]  c939      -92
    delta[B3,B0]  c940      -10000
    delta[B3,B1]  c47       9
    delta[B3,B1]  c48       8
    delta[B3,B1]  c101      -35
    delta[B3,B1]  c102      -21
    delta[B3,B1]  c467      -34
    delta[B3,B1]  c468      -21
    delta[B3,B1]  c521      10
    delta[B3,B1]  c522      8
    delta[B3,B1]  c887      99
    delta[B3,B1]  c888      10000
    delta[B3,B1]  c941      -100
    delta[B3,B1]  c942      -10000
    delta[B3,B2]  c75       10
    delta[B3,B2]  c76       21
    delta[B3,B2]  c103      -35
    delta[B3,B2]  c104      -21
    delta[B3,B2]  c495      -30
    delta[B3,B2]  c496      -21
    delta[B3,B2]  c523      15
    delta[B3,B2]  c524      21
    delta[B3,B2]  c915      95
    delta[B3,B2]  c916      10000
    delta[B3,B2]  c943      -100
    delta[B3,B2]  c944      -10000
    delta[B3,B4]  c105      35
    delta[B3,B4]  c106      -21
    delta[B3,B4]  c133      -17
    delta[B3,B4]  c134      19
    delta[B3,B4]  c525      -25
    delta[B3,B4]  c526      19
    delta[B3,B4]  c553      27
    delta[B3,B4]  c554      -21
    delta[B3,B4]  c945      100
    delta[B3,B4]  c946      -10000
    delta[B3,B4]  c973      -92
    delta[B3,B4]  c974      10000
    delta[B3,B5]  c107      33
    delta[B3,B5]  c108      -21
    delta[B3,B5]  c161      -9
    delta[B3,B5]  c162      13
    delta[B3,B5]  c527      -7
    delta[B3,B5]  c528      13
    delta[B3,B5]  c581      35
    delta[B3,B5]  c582      -21
    delta[B3,B5]  c947      98
    delta[B3,B5]  c948      -10000
    delta[B3,B5]  c1001     -100
    delta[B3,B5]  c1002     10000
    delta[B3,B6]  c109      34
    delta[B3,B6]  c110      -21
    delta[B3,B6]  c189      -13
    delta[B3,B6]  c190      25
    delta[B3,B6]  c529      -12
    delta[B3,B6]  c530      25
    delta[B3,B6]  c609      35
    delta[B3,B6]  c610      -21
    delta[B3,B6]  c949      99
    delta[B3,B6]  c950      -10000
    delta[B3,B6]  c1029     -100
    delta[B3,B6]  c1030     10000
    delta[B3,B7]  c111      27
    delta[B3,B7]  c112      -21
    delta[B3,B7]  c217      -19
    delta[B3,B7]  c218      12
    delta[B3,B7]  c531      -12
    delta[B3,B7]  c532      12
    delta[B3,B7]  c637      34
    delta[B3,B7]  c638      -21
    delta[B3,B7]  c951      92
    delta[B3,B7]  c952      -10000
    delta[B3,B7]  c1057     -99
    delta[B3,B7]  c1058     10000
    delta[B3,B8]  c113      24
    delta[B3,B8]  c114      -21
    delta[B3,B8]  c245      -28
    delta[B3,B8]  c246      12
    delta[B3,B8]  c533      -27
    delta[B3,B8]  c534      12
    delta[B3,B8]  c665      25
    delta[B3,B8]  c666      -21
    delta[B3,B8]  c953      89
    delta[B3,B8]  c954      -10000
    delta[B3,B8]  c1085     -90
    delta[B3,B8]  c1086     10000
    delta[B3,B9]  c115      35
    delta[B3,B9]  c116      -21
    delta[B3,B9]  c273      -5
    delta[B3,B9]  c274      30
    delta[B3,B9]  c535      -8
    delta[B3,B9]  c536      30
    delta[B3,B9]  c693      32
    delta[B3,B9]  c694      -21
    delta[B3,B9]  c955      100
    delta[B3,B9]  c956      -10000
    delta[B3,B9]  c1113     -97
    delta[B3,B9]  c1114     10000
    delta[B3,B10]  c117      -23
    delta[B3,B10]  c118      -21
    delta[B3,B10]  c301      31
    delta[B3,B10]  c302      20
    delta[B3,B10]  c537      19
    delta[B3,B10]  c538      20
    delta[B3,B10]  c721      -35
    delta[B3,B10]  c722      -21
    delta[B3,B10]  c957      -88
    delta[B3,B10]  c958      -10000
    delta[B3,B10]  c1141     100
    delta[B3,B10]  c1142     10000
    delta[B3,B11]  c119      -35
    delta[B3,B11]  c120      -21
    delta[B3,B11]  c329      8
    delta[B3,B11]  c330      13
    delta[B3,B11]  c539      8
    delta[B3,B11]  c540      13
    delta[B3,B11]  c749      -35
    delta[B3,B11]  c750      -21
    delta[B3,B11]  c959      -100
    delta[B3,B11]  c960      -10000
    delta[B3,B11]  c1169     100
    delta[B3,B11]  c1170     10000
    delta[B3,B12]  c121      -31
    delta[B3,B12]  c122      -21
    delta[B3,B12]  c357      12
    delta[B3,B12]  c358      23
    delta[B3,B12]  c541      8
    delta[B3,B12]  c542      23
    delta[B3,B12]  c777      -35
    delta[B3,B12]  c778      -21
    delta[B3,B12]  c961      -96
    delta[B3,B12]  c962      -10000
    delta[B3,B12]  c1197     100
    delta[B3,B12]  c1198     10000
    delta[B3,B13]  c123      -32
    delta[B3,B13]  c124      -21
    delta[B3,B13]  c385      11
    delta[B3,B13]  c386      21
    delta[B3,B13]  c543      8
    delta[B3,B13]  c544      21
    delta[B3,B13]  c805      -35
    delta[B3,B13]  c806      -21
    delta[B3,B13]  c963      -97
    delta[B3,B13]  c964      -10000
    delta[B3,B13]  c1225     100
    delta[B3,B13]  c1226     10000
    delta[B3,B14]  c125      -34
    delta[B3,B14]  c126      -21
    delta[B3,B14]  c413      14
    delta[B3,B14]  c414      24
    delta[B3,B14]  c545      13
    delta[B3,B14]  c546      24
    delta[B3,B14]  c833      -35
    delta[B3,B14]  c834      -21
    delta[B3,B14]  c965      -99
    delta[B3,B14]  c966      -10000
    delta[B3,B14]  c1253     100
    delta[B3,B14]  c1254     10000
    delta[B4,B0]  c21       20
    delta[B4,B0]  c22       10
    delta[B4,B0]  c127      -17
    delta[B4,B0]  c128      -19
    delta[B4,B0]  c441      -25
    delta[B4,B0]  c442      -19
    delta[B4,B0]  c547      12
    delta[B4,B0]  c548      10
    delta[B4,B0]  c861      100
    delta[B4,B0]  c862      10000
    delta[B4,B0]  c967      -92
    delta[B4,B0]  c968      -10000
    delta[B4,B1]  c49       10
    delta[B4,B1]  c50       8
    delta[B4,B1]  c129      -25
    delta[B4,B1]  c130      -19
    delta[B4,B1]  c469      -25
    delta[B4,B1]  c470      -19
    delta[B4,B1]  c549      10
    delta[B4,B1]  c550      8
    delta[B4,B1]  c889      100
    delta[B4,B1]  c890      10000
    delta[B4,B1]  c969      -100
    delta[B4,B1]  c970      -10000
    delta[B4,B2]  c77       15
    delta[B4,B2]  c78       21
    delta[B4,B2]  c131      -25
    delta[B4,B2]  c132      -19
    delta[B4,B2]  c497      -25
    delta[B4,B2]  c498      -19
    delta[B4,B2]  c551      15
    delta[B4,B2]  c552      21
    delta[B4,B2]  c917      100
    delta[B4,B2]  c918      10000
    delta[B4,B2]  c971      -100
    delta[B4,B2]  c972      -10000
    delta[B4,B3]  c105      35
    delta[B4,B3]  c106      21
    delta[B4,B3]  c133      -17
    delta[B4,B3]  c134      -19
    delta[B4,B3]  c525      -25
    delta[B4,B3]  c526      -19
    delta[B4,B3]  c553      27
    delta[B4,B3]  c554      21
    delta[B4,B3]  c945      100
    delta[B4,B3]  c946      10000
    delta[B4,B3]  c973      -92
    delta[B4,B3]  c974      -10000
    delta[B4,B5]  c135      23
    delta[B4,B5]  c136      -19
    delta[B4,B5]  c163      -9
    delta[B4,B5]  c164      13
    delta[B4,B5]  c555      -7
    delta[B4,B5]  c556      13
    delta[B4,B5]  c583      25
    delta[B4,B5]  c584      -19
    delta[B4,B5]  c975      98
    delta[B4,B5]  c976      -10000
    delta[B4,B5]  c1003     -100
    delta[B4,B5]  c1004     10000
    delta[B4,B6]  c137      24
    delta[B4,B6]  c138      -19
    delta[B4,B6]  c191      -13
    delta[B4,B6]  c192      25
    delta[B4,B6]  c557      -12
    delta[B4,B6]  c558      25
    delta[B4,B6]  c611      25
    delta[B4,B6]  c612      -19
    delta[B4,B6]  c977      99
    delta[B4,B6]  c978      -10000
    delta[B4,B6]  c1031     -100
    delta[B4,B6]  c1032     10000
    delta[B4,B7]  c139      17
    delta[B4,B7]  c140      -19
    delta[B4,B7]  c219      -20
    delta[B4,B7]  c220      12
    delta[B4,B7]  c559      -12
    delta[B4,B7]  c560      12
    delta[B4,B7]  c639      25
    delta[B4,B7]  c640      -19
    delta[B4,B7]  c979      92
    delta[B4,B7]  c980      -10000
    delta[B4,B7]  c1059     -100
    delta[B4,B7]  c1060     10000
    delta[B4,B8]  c141      17
    delta[B4,B8]  c142      -19
    delta[B4,B8]  c247      -38
    delta[B4,B8]  c248      12
    delta[B4,B8]  c561      -30
    delta[B4,B8]  c562      12
    delta[B4,B8]  c667      25
    delta[B4,B8]  c668      -19
    delta[B4,B8]  c981      92
    delta[B4,B8]  c982      -10000
    delta[B4,B8]  c1087     -100
    delta[B4,B8]  c1088     10000
    delta[B4,B9]  c143      25
    delta[B4,B9]  c144      -19
    delta[B4,B9]  c275      -8
    delta[B4,B9]  c276      30
    delta[B4,B9]  c563      -8
    delta[B4,B9]  c564      30
    delta[B4,B9]  c695      25
    delta[B4,B9]  c696      -19
    delta[B4,B9]  c983      100
    delta[B4,B9]  c984      -10000
    delta[B4,B9]  c1115     -100
    delta[B4,B9]  c1116     10000
    delta[B4,B10]  c145      -17
    delta[B4,B10]  c146      -19
    delta[B4,B10]  c303      31
    delta[B4,B10]  c304      20
    delta[B4,B10]  c565      23
    delta[B4,B10]  c566      20
    delta[B4,B10]  c723      -25
    delta[B4,B10]  c724      -19
    delta[B4,B10]  c985      -92
    delta[B4,B10]  c986      -10000
    delta[B4,B10]  c1143     100
    delta[B4,B10]  c1144     10000
    delta[B4,B11]  c147      -25
    delta[B4,B11]  c148      -19
    delta[B4,B11]  c331      8
    delta[B4,B11]  c332      13
    delta[B4,B11]  c567      8
    delta[B4,B11]  c568      13
    delta[B4,B11]  c751      -25
    delta[B4,B11]  c752      -19
    delta[B4,B11]  c987      -100
    delta[B4,B11]  c988      -10000
    delta[B4,B11]  c1171     100
    delta[B4,B11]  c1172     10000
    delta[B4,B12]  c149      -21
    delta[B4,B12]  c150      -19
    delta[B4,B12]  c359      12
    delta[B4,B12]  c360      23
    delta[B4,B12]  c569      8
    delta[B4,B12]  c570      23
    delta[B4,B12]  c779      -25
    delta[B4,B12]  c780      -19
    delta[B4,B12]  c989      -96
    delta[B4,B12]  c990      -10000
    delta[B4,B12]  c1199     100
    delta[B4,B12]  c1200     10000
    delta[B4,B13]  c151      -22
    delta[B4,B13]  c152      -19
    delta[B4,B13]  c387      11
    delta[B4,B13]  c388      21
    delta[B4,B13]  c571      8
    delta[B4,B13]  c572      21
    delta[B4,B13]  c807      -25
    delta[B4,B13]  c808      -19
    delta[B4,B13]  c991      -97
    delta[B4,B13]  c992      -10000
    delta[B4,B13]  c1227     100
    delta[B4,B13]  c1228     10000
    delta[B4,B14]  c153      -24
    delta[B4,B14]  c154      -19
    delta[B4,B14]  c415      14
    delta[B4,B14]  c416      24
    delta[B4,B14]  c573      13
    delta[B4,B14]  c574      24
    delta[B4,B14]  c835      -25
    delta[B4,B14]  c836      -19
    delta[B4,B14]  c993      -99
    delta[B4,B14]  c994      -10000
    delta[B4,B14]  c1255     100
    delta[B4,B14]  c1256     10000
    delta[B5,B0]  c23       20
    delta[B5,B0]  c24       7
    delta[B5,B0]  c155      -9
    delta[B5,B0]  c156      -13
    delta[B5,B0]  c443      -9
    delta[B5,B0]  c444      -10
    delta[B5,B0]  c575      20
    delta[B5,B0]  c576      10
    delta[B5,B0]  c863      100
    delta[B5,B0]  c864      9997
    delta[B5,B0]  c995      -100
    delta[B5,B0]  c996      -10000
    delta[B5,B1]  c51       9
    delta[B5,B1]  c52       7
    delta[B5,B1]  c157      -9
    delta[B5,B1]  c158      -13
    delta[B5,B1]  c471      -8
    delta[B5,B1]  c472      -12
    delta[B5,B1]  c577      10
    delta[B5,B1]  c578      8
    delta[B5,B1]  c891      99
    delta[B5,B1]  c892      9999
    delta[B5,B1]  c997      -100
    delta[B5,B1]  c998      -10000
    delta[B5,B2]  c79       13
    delta[B5,B2]  c80       20
    delta[B5,B2]  c159      -9
    delta[B5,B2]  c160      -13
    delta[B5,B2]  c499      -7
    delta[B5,B2]  c500      -12
    delta[B5,B2]  c579      15
    delta[B5,B2]  c580      21
    delta[B5,B2]  c919      98
    delta[B5,B2]  c920      9999
    delta[B5,B2]  c999      -100
    delta[B5,B2]  c1000     -10000
    delta[B5,B3]  c107      33
    delta[B5,B3]  c108      21
    delta[B5,B3]  c161      -9
    delta[B5,B3]  c162      -13
    delta[B5,B3]  c527      -7
    delta[B5,B3]  c528      -13
    delta[B5,B3]  c581      35
    delta[B5,B3]  c582      21
    delta[B5,B3]  c947      98
    delta[B5,B3]  c948      10000
    delta[B5,B3]  c1001     -100
    delta[B5,B3]  c1002     -10000
    delta[B5,B4]  c135      23
    delta[B5,B4]  c136      19
    delta[B5,B4]  c163      -9
    delta[B5,B4]  c164      -13
    delta[B5,B4]  c555      -7
    delta[B5,B4]  c556      -13
    delta[B5,B4]  c583      25
    delta[B5,B4]  c584      19
    delta[B5,B4]  c975      98
    delta[B5,B4]  c976      10000
    delta[B5,B4]  c1003     -100
    delta[B5,B4]  c1004     -10000
    delta[B5,B6]  c165      9
    delta[B5,B6]  c166      -13
    delta[B5,B6]  c193      -13
    delta[B5,B6]  c194      22
    delta[B5,B6]  c585      -13
    delta[B5,B6]  c586      25
    delta[B5,B6]  c613      9
    delta[B5,B6]  c614      -10
    delta[B5,B6]  c1005     100
    delta[B5,B6]  c1006     -10000
    delta[B5,B6]  c1033     -100
    delta[B5,B6]  c1034     9997
    delta[B5,B7]  c167      9
    delta[B5,B7]  c168      -13
    delta[B5,B7]  c221      -19
    delta[B5,B7]  c222      12
    delta[B5,B7]  c587      -20
    delta[B5,B7]  c588      12
    delta[B5,B7]  c641      8
    delta[B5,B7]  c642      -13
    delta[B5,B7]  c1007     100
    delta[B5,B7]  c1008     -10000
    delta[B5,B7]  c1061     -99
    delta[B5,B7]  c1062     10000
    delta[B5,B8]  c169      9
    delta[B5,B8]  c170      -13
    delta[B5,B8]  c249      -36
    delta[B5,B8]  c250      12
    delta[B5,B8]  c589      -38
    delta[B5,B8]  c590      12
    delta[B5,B8]  c669      7
    delta[B5,B8]  c670      -13
    delta[B5,B8]  c1009     100
    delta[B5,B8]  c1010     -10000
    delta[B5,B8]  c1089     -98
    delta[B5,B8]  c1090     10000
    delta[B5,B9]  c171      9
    delta[B5,B9]  c172      -13
    delta[B5,B9]  c277      -6
    delta[B5,B9]  c278      27
    delta[B5,B9]  c591      -8
    delta[B5,B9]  c592      30
    delta[B5,B9]  c697      7
    delta[B5,B9]  c698      -10
    delta[B5,B9]  c1011     100
    delta[B5,B9]  c1012     -10000
    delta[B5,B9]  c1117     -98
    delta[B5,B9]  c1118     9997
    delta[B5,B10]  c173      -9
    delta[B5,B10]  c174      -13
    delta[B5,B10]  c305      31
    delta[B5,B10]  c306      20
    delta[B5,B10]  c593      31
    delta[B5,B10]  c594      20
    delta[B5,B10]  c725      -9
    delta[B5,B10]  c726      -13
    delta[B5,B10]  c1013     -100
    delta[B5,B10]  c1014     -10000
    delta[B5,B10]  c1145     100
    delta[B5,B10]  c1146     10000
    delta[B5,B11]  c175      -9
    delta[B5,B11]  c176      -13
    delta[B5,B11]  c333      8
    delta[B5,B11]  c334      13
    delta[B5,B11]  c595      8
    delta[B5,B11]  c596      13
    delta[B5,B11]  c753      -9
    delta[B5,B11]  c754      -13
    delta[B5,B11]  c1015     -100
    delta[B5,B11]  c1016     -10000
    delta[B5,B11]  c1173     100
    delta[B5,B11]  c1174     10000
    delta[B5,B12]  c177      -9
    delta[B5,B12]  c178      -13
    delta[B5,B12]  c361      12
    delta[B5,B12]  c362      23
    delta[B5,B12]  c597      12
    delta[B5,B12]  c598      23
    delta[B5,B12]  c781      -9
    delta[B5,B12]  c782      -13
    delta[B5,B12]  c1017     -100
    delta[B5,B12]  c1018     -10000
    delta[B5,B12]  c1201     100
    delta[B5,B12]  c1202     10000
    delta[B5,B13]  c179      -9
    delta[B5,B13]  c180      -13
    delta[B5,B13]  c389      11
    delta[B5,B13]  c390      18
    delta[B5,B13]  c599      11
    delta[B5,B13]  c600      21
    delta[B5,B13]  c809      -9
    delta[B5,B13]  c810      -10
    delta[B5,B13]  c1019     -100
    delta[B5,B13]  c1020     -10000
    delta[B5,B13]  c1229     100
    delta[B5,B13]  c1230     9997
    delta[B5,B14]  c181      -9
    delta[B5,B14]  c182      -13
    delta[B5,B14]  c417      14
    delta[B5,B14]  c418      21
    delta[B5,B14]  c601      14
    delta[B5,B14]  c602      24
    delta[B5,B14]  c837      -9
    delta[B5,B14]  c838      -10
    delta[B5,B14]  c1021     -100
    delta[B5,B14]  c1022     -10000
    delta[B5,B14]  c1257     100
    delta[B5,B14]  c1258     9997
    delta[B6,B0]  c25       20
    delta[B6,B0]  c26       7
    delta[B6,B0]  c183      -13
    delta[B6,B0]  c184      -25
    delta[B6,B0]  c445      -13
    delta[B6,B0]  c446      -22
    delta[B6,B0]  c603      20
    delta[B6,B0]  c604      10
    delta[B6,B0]  c865      100
    delta[B6,B0]  c866      9997
    delta[B6,B0]  c1023     -100
    delta[B6,B0]  c1024     -10000
    delta[B6,B1]  c53       9
    delta[B6,B1]  c54       7
    delta[B6,B1]  c185      -13
    delta[B6,B1]  c186      -25
    delta[B6,B1]  c473      -12
    delta[B6,B1]  c474      -24
    delta[B6,B1]  c605      10
    delta[B6,B1]  c606      8
    delta[B6,B1]  c893      99
    delta[B6,B1]  c894      9999
    delta[B6,B1]  c1025     -100
    delta[B6,B1]  c1026     -10000
    delta[B6,B2]  c81       14
    delta[B6,B2]  c82       20
    delta[B6,B2]  c187      -13
    delta[B6,B2]  c188      -17
    delta[B6,B2]  c501      -12
    delta[B6,B2]  c502      -24
    delta[B6,B2]  c607      15
    delta[B6,B2]  c608      13
    delta[B6,B2]  c921      99
    delta[B6,B2]  c922      9999
    delta[B6,B2]  c1027     -100
    delta[B6,B2]  c1028     -9992
    delta[B6,B3]  c109      34
    delta[B6,B3]  c110      21
    delta[B6,B3]  c189      -13
    delta[B6,B3]  c190      -25
    delta[B6,B3]  c529      -12
    delta[B6,B3]  c530      -25
    delta[B6,B3]  c609      35
    delta[B6,B3]  c610      21
    delta[B6,B3]  c949      99
    delta[B6,B3]  c950      10000
    delta[B6,B3]  c1029     -100
    delta[B6,B3]  c1030     -10000
    delta[B6,B4]  c137      24
    delta[B6,B4]  c138      19
    delta[B6,B4]  c191      -13
    delta[B6,B4]  c192      -25
    delta[B6,B4]  c557      -12
    delta[B6,B4]  c558      -25
    delta[B6,B4]  c611      25
    delta[B6,B4]  c612      19
    delta[B6,B4]  c977      99
    delta[B6,B4]  c978      10000
    delta[B6,B4]  c1031     -100
    delta[B6,B4]  c1032     -10000
    delta[B6,B5]  c165      9
    delta[B6,B5]  c166      13
    delta[B6,B5]  c193      -13
    delta[B6,B5]  c194      -22
    delta[B6,B5]  c585      -13
    delta[B6,B5]  c586      -25
    delta[B6,B5]  c613      9
    delta[B6,B5]  c614      10
    delta[B6,B5]  c1005     100
    delta[B6,B5]  c1006     10000
    delta[B6,B5]  c1033     -100
    delta[B6,B5]  c1034     -9997
    delta[B6,B7]  c195      13
    delta[B6,B7]  c196      -25
    delta[B6,B7]  c223      -19
    delta[B6,B7]  c224      12
    delta[B6,B7]  c615      -20
    delta[B6,B7]  c616      12
    delta[B6,B7]  c643      12
    delta[B6,B7]  c644      -25
    delta[B6,B7]  c1035     100
    delta[B6,B7]  c1036     -10000
    delta[B6,B7]  c1063     -99
    delta[B6,B7]  c1064     10000
    delta[B6,B8]  c197      13
    delta[B6,B8]  c198      -25
    delta[B6,B8]  c251      -37
    delta[B6,B8]  c252      12
    delta[B6,B8]  c617      -38
    delta[B6,B8]  c618      12
    delta[B6,B8]  c671      12
    delta[B6,B8]  c672      -25
    delta[B6,B8]  c1037     100
    delta[B6,B8]  c1038     -10000
    delta[B6,B8]  c1091     -99
    delta[B6,B8]  c1092     10000
    delta[B6,B9]  c199      13
    delta[B6,B9]  c200      -18
    delta[B6,B9]  c279      -7
    delta[B6,B9]  c280      22
    delta[B6,B9]  c619      -8
    delta[B6,B9]  c620      23
    delta[B6,B9]  c699      12
    delta[B6,B9]  c700      -17
    delta[B6,B9]  c1039     100
    delta[B6,B9]  c1040     -9993
    delta[B6,B9]  c1119     -99
    delta[B6,B9]  c1120     9992
    delta[B6,B10]  c201      -13
    delta[B6,B10]  c202      -17
    delta[B6,B10]  c307      31
    delta[B6,B10]  c308      20
    delta[B6,B10]  c621      31
    delta[B6,B10]  c622      12
    delta[B6,B10]  c727      -13
    delta[B6,B10]  c728      -25
    delta[B6,B10]  c1041     -100
    delta[B6,B10]  c1042     -9992
    delta[B6,B10]  c1147     100
    delta[B6,B10]  c1148     10000
    delta[B6,B11]  c203      -13
    delta[B6,B11]  c204      -22
    delta[B6,B11]  c335      8
    delta[B6,B11]  c336      13
    delta[B6,B11]  c623      8
    delta[B6,B11]  c624      10
    delta[B6,B11]  c755      -13
    delta[B6,B11]  c756      -25
    delta[B6,B11]  c1043     -100
    delta[B6,B11]  c1044     -9997
    delta[B6,B11]  c1175     100
    delta[B6,B11]  c1176     10000
    delta[B6,B12]  c205      -13
    delta[B6,B12]  c206      -17
    delta[B6,B12]  c363      12
    delta[B6,B12]  c364      23
    delta[B6,B12]  c625      12
    delta[B6,B12]  c626      15
    delta[B6,B12]  c783      -13
    delta[B6,B12]  c784      -25
    delta[B6,B12]  c1045     -100
    delta[B6,B12]  c1046     -9992
    delta[B6,B12]  c1203     100
    delta[B6,B12]  c1204     10000
    delta[B6,B13]  c207      -13
    delta[B6,B13]  c208      -21
    delta[B6,B13]  c391      11
    delta[B6,B13]  c392      16
    delta[B6,B13]  c627      11
    delta[B6,B13]  c628      17
    delta[B6,B13]  c811      -13
    delta[B6,B13]  c812      -20
    delta[B6,B13]  c1047     -100
    delta[B6,B13]  c1048     -9996
    delta[B6,B13]  c1231     100
    delta[B6,B13]  c1232     9995
    delta[B6,B14]  c209      -13
    delta[B6,B14]  c210      -21
    delta[B6,B14]  c419      14
    delta[B6,B14]  c420      16
    delta[B6,B14]  c629      14
    delta[B6,B14]  c630      20
    delta[B6,B14]  c839      -13
    delta[B6,B14]  c840      -17
    delta[B6,B14]  c1049     -100
    delta[B6,B14]  c1050     -9996
    delta[B6,B14]  c1259     100
    delta[B6,B14]  c1260     9992
    delta[B7,B0]  c27       20
    delta[B7,B0]  c28       10
    delta[B7,B0]  c211      -19
    delta[B7,B0]  c212      -12
    delta[B7,B0]  c447      -20
    delta[B7,B0]  c448      -12
    delta[B7,B0]  c631      19
    delta[B7,B0]  c632      10
    delta[B7,B0]  c867      100
    delta[B7,B0]  c868      10000
    delta[B7,B0]  c1051     -99
    delta[B7,B0]  c1052     -10000
    delta[B7,B1]  c55       9
    delta[B7,B1]  c56       8
    delta[B7,B1]  c213      -20
    delta[B7,B1]  c214      -12
    delta[B7,B1]  c475      -19
    delta[B7,B1]  c476      -12
    delta[B7,B1]  c633      10
    delta[B7,B1]  c634      8
    delta[B7,B1]  c895      99
    delta[B7,B1]  c896      10000
    delta[B7,B1]  c1053     -100
    delta[B7,B1]  c1054     -10000
    delta[B7,B2]  c83       10
    delta[B7,B2]  c84       21
    delta[B7,B2]  c215      -20
    delta[B7,B2]  c216      -12
    delta[B7,B2]  c503      -15
    delta[B7,B2]  c504      -12
    delta[B7,B2]  c635      15
    delta[B7,B2]  c636      21
    delta[B7,B2]  c923      95
    delta[B7,B2]  c924      10000
    delta[B7,B2]  c1055     -100
    delta[B7,B2]  c1056     -10000
    delta[B7,B3]  c111      27
    delta[B7,B3]  c112      21
    delta[B7,B3]  c217      -19
    delta[B7,B3]  c218      -12
    delta[B7,B3]  c531      -12
    delta[B7,B3]  c532      -12
    delta[B7,B3]  c637      34
    delta[B7,B3]  c638      21
    delta[B7,B3]  c951      92
    delta[B7,B3]  c952      10000
    delta[B7,B3]  c1057     -99
    delta[B7,B3]  c1058     -10000
    delta[B7,B4]  c139      17
    delta[B7,B4]  c140      19
    delta[B7,B4]  c219      -20
    delta[B7,B4]  c220      -12
    delta[B7,B4]  c559      -12
    delta[B7,B4]  c560      -12
    delta[B7,B4]  c639      25
    delta[B7,B4]  c640      19
    delta[B7,B4]  c979      92
    delta[B7,B4]  c980      10000
    delta[B7,B4]  c1059     -100
    delta[B7,B4]  c1060     -10000
    delta[B7,B5]  c167      9
    delta[B7,B5]  c168      13
    delta[B7,B5]  c221      -19
    delta[B7,B5]  c222      -12
    delta[B7,B5]  c587      -20
    delta[B7,B5]  c588      -12
    delta[B7,B5]  c641      8
    delta[B7,B5]  c642      13
    delta[B7,B5]  c1007     100
    delta[B7,B5]  c1008     10000
    delta[B7,B5]  c1061     -99
    delta[B7,B5]  c1062     -10000
    delta[B7,B6]  c195      13
    delta[B7,B6]  c196      25
    delta[B7,B6]  c223      -19
    delta[B7,B6]  c224      -12
    delta[B7,B6]  c615      -20
    delta[B7,B6]  c616      -12
    delta[B7,B6]  c643      12
    delta[B7,B6]  c644      25
    delta[B7,B6]  c1035     100
    delta[B7,B6]  c1036     10000
    delta[B7,B6]  c1063     -99
    delta[B7,B6]  c1064     -10000
    delta[B7,B8]  c225      19
    delta[B7,B8]  c226      -12
    delta[B7,B8]  c253      -30
    delta[B7,B8]  c254      12
    delta[B7,B8]  c645      -37
    delta[B7,B8]  c646      12
    delta[B7,B8]  c673      12
    delta[B7,B8]  c674      -12
    delta[B7,B8]  c1065     99
    delta[B7,B8]  c1066     -10000
    delta[B7,B8]  c1093     -92
    delta[B7,B8]  c1094     10000
    delta[B7,B9]  c227      20
    delta[B7,B9]  c228      -12
    delta[B7,B9]  c281      -5
    delta[B7,B9]  c282      30
    delta[B7,B9]  c647      -8
    delta[B7,B9]  c648      30
    delta[B7,B9]  c701      17
    delta[B7,B9]  c702      -12
    delta[B7,B9]  c1067     100
    delta[B7,B9]  c1068     -10000
    delta[B7,B9]  c1121     -97
    delta[B7,B9]  c1122     10000
    delta[B7,B10]  c229      -19
    delta[B7,B10]  c230      -12
    delta[B7,B10]  c309      31
    delta[B7,B10]  c310      20
    delta[B7,B10]  c649      30
    delta[B7,B10]  c650      20
    delta[B7,B10]  c729      -20
    delta[B7,B10]  c730      -12
    delta[B7,B10]  c1069     -99
    delta[B7,B10]  c1070     -10000
    delta[B7,B10]  c1149     100
    delta[B7,B10]  c1150     10000
    delta[B7,B11]  c231      -20
    delta[B7,B11]  c232      -12
    delta[B7,B11]  c337      8
    delta[B7,B11]  c338      13
    delta[B7,B11]  c651      8
    delta[B7,B11]  c652      13
    delta[B7,B11]  c757      -20
    delta[B7,B11]  c758      -12
    delta[B7,B11]  c1071     -100
    delta[B7,B11]  c1072     -10000
    delta[B7,B11]  c1177     100
    delta[B7,B11]  c1178     10000
    delta[B7,B12]  c233      -19
    delta[B7,B12]  c234      -12
    delta[B7,B12]  c365      12
    delta[B7,B12]  c366      23
    delta[B7,B12]  c653      11
    delta[B7,B12]  c654      23
    delta[B7,B12]  c785      -20
    delta[B7,B12]  c786      -12
    delta[B7,B12]  c1073     -99
    delta[B7,B12]  c1074     -10000
    delta[B7,B12]  c1205     100
    delta[B7,B12]  c1206     10000
    delta[B7,B13]  c235      -19
    delta[B7,B13]  c236      -12
    delta[B7,B13]  c393      11
    delta[B7,B13]  c394      21
    delta[B7,B13]  c655      10
    delta[B7,B13]  c656      21
    delta[B7,B13]  c813      -20
    delta[B7,B13]  c814      -12
    delta[B7,B13]  c1075     -99
    delta[B7,B13]  c1076     -10000
    delta[B7,B13]  c1233     100
    delta[B7,B13]  c1234     10000
    delta[B7,B14]  c237      -19
    delta[B7,B14]  c238      -12
    delta[B7,B14]  c421      14
    delta[B7,B14]  c422      24
    delta[B7,B14]  c657      13
    delta[B7,B14]  c658      24
    delta[B7,B14]  c841      -20
    delta[B7,B14]  c842      -12
    delta[B7,B14]  c1077     -99
    delta[B7,B14]  c1078     -10000
    delta[B7,B14]  c1261     100
    delta[B7,B14]  c1262     10000
    delta[B8,B0]  c29       20
    delta[B8,B0]  c30       10
    delta[B8,B0]  c239      -30
    delta[B8,B0]  c240      -12
    delta[B8,B0]  c449      -38
    delta[B8,B0]  c450      -12
    delta[B8,B0]  c659      12
    delta[B8,B0]  c660      10
    delta[B8,B0]  c869      100
    delta[B8,B0]  c870      10000
    delta[B8,B0]  c1079     -92
    delta[B8,B0]  c1080     -10000
    delta[B8,B1]  c57       9
    delta[B8,B1]  c58       8
    delta[B8,B1]  c241      -38
    delta[B8,B1]  c242      -12
    delta[B8,B1]  c477      -37
    delta[B8,B1]  c478      -12
    delta[B8,B1]  c661      10
    delta[B8,B1]  c662      8
    delta[B8,B1]  c897      99
    delta[B8,B1]  c898      10000
    delta[B8,B1]  c1081     -100
    delta[B8,B1]  c1082     -10000
    delta[B8,B2]  c85       10
    delta[B8,B2]  c86       21
    delta[B8,B2]  c243      -38
    delta[B8,B2]  c244      -12
    delta[B8,B2]  c505      -33
    delta[B8,B2]  c506      -12
    delta[B8,B2]  c663      15
    delta[B8,B2]  c664      21
    delta[B8,B2]  c925      95
    delta[B8,B2]  c926      10000
    delta[B8,B2]  c1083     -100
    delta[B8,B2]  c1084     -10000
    delta[B8,B3]  c113      24
    delta[B8,B3]  c114      21
    delta[B8,B3]  c245      -28
    delta[B8,B3]  c246      -12
    delta[B8,B3]  c533      -27
    delta[B8,B3]  c534      -12
    delta[B8,B3]  c665      25
    delta[B8,B3]  c666      21
    delta[B8,B3]  c953      89
    delta[B8,B3]  c954      10000
    delta[B8,B3]  c1085     -90
    delta[B8,B3]  c1086     -10000
    delta[B8,B4]  c141      17
    delta[B8,B4]  c142      19
    delta[B8,B4]  c247      -38
    delta[B8,B4]  c248      -12
    delta[B8,B4]  c561      -30
    delta[B8,B4]  c562      -12
    delta[B8,B4]  c667      25
    delta[B8,B4]  c668      19
    delta[B8,B4]  c981      92
    delta[B8,B4]  c982      10000
    delta[B8,B4]  c1087     -100
    delta[B8,B4]  c1088     -10000
    delta[B8,B5]  c169      9
    delta[B8,B5]  c170      13
    delta[B8,B5]  c249      -36
    delta[B8,B5]  c250      -12
    delta[B8,B5]  c589      -38
    delta[B8,B5]  c590      -12
    delta[B8,B5]  c669      7
    delta[B8,B5]  c670      13
    delta[B8,B5]  c1009     100
    delta[B8,B5]  c1010     10000
    delta[B8,B5]  c1089     -98
    delta[B8,B5]  c1090     -10000
    delta[B8,B6]  c197      13
    delta[B8,B6]  c198      25
    delta[B8,B6]  c251      -37
    delta[B8,B6]  c252      -12
    delta[B8,B6]  c617      -38
    delta[B8,B6]  c618      -12
    delta[B8,B6]  c671      12
    delta[B8,B6]  c672      25
    delta[B8,B6]  c1037     100
    delta[B8,B6]  c1038     10000
    delta[B8,B6]  c1091     -99
    delta[B8,B6]  c1092     -10000
    delta[B8,B7]  c225      19
    delta[B8,B7]  c226      12
    delta[B8,B7]  c253      -30
    delta[B8,B7]  c254      -12
    delta[B8,B7]  c645      -37
    delta[B8,B7]  c646      -12
    delta[B8,B7]  c673      12
    delta[B8,B7]  c674      12
    delta[B8,B7]  c1065     99
    delta[B8,B7]  c1066     10000
    delta[B8,B7]  c1093     -92
    delta[B8,B7]  c1094     -10000
    delta[B8,B9]  c255      38
    delta[B8,B9]  c256      -12
    delta[B8,B9]  c283      -5
    delta[B8,B9]  c284      30
    delta[B8,B9]  c675      -8
    delta[B8,B9]  c676      30
    delta[B8,B9]  c703      35
    delta[B8,B9]  c704      -12
    delta[B8,B9]  c1095     100
    delta[B8,B9]  c1096     -10000
    delta[B8,B9]  c1123     -97
    delta[B8,B9]  c1124     10000
    delta[B8,B10]  c257      -28
    delta[B8,B10]  c258      -12
    delta[B8,B10]  c311      31
    delta[B8,B10]  c312      20
    delta[B8,B10]  c677      21
    delta[B8,B10]  c678      20
    delta[B8,B10]  c731      -38
    delta[B8,B10]  c732      -12
    delta[B8,B10]  c1097     -90
    delta[B8,B10]  c1098     -10000
    delta[B8,B10]  c1151     100
    delta[B8,B10]  c1152     10000
    delta[B8,B11]  c259      -38
    delta[B8,B11]  c260      -12
    delta[B8,B11]  c339      8
    delta[B8,B11]  c340      13
    delta[B8,B11]  c679      8
    delta[B8,B11]  c680      13
    delta[B8,B11]  c759      -38
    delta[B8,B11]  c760      -12
    delta[B8,B11]  c1099     -100
    delta[B8,B11]  c1100     -10000
    delta[B8,B11]  c1179     100
    delta[B8,B11]  c1180     10000
    delta[B8,B12]  c261      -34
    delta[B8,B12]  c262      -12
    delta[B8,B12]  c367      12
    delta[B8,B12]  c368      23
    delta[B8,B12]  c681      8
    delta[B8,B12]  c682      23
    delta[B8,B12]  c787      -38
    delta[B8,B12]  c788      -12
    delta[B8,B12]  c1101     -96
    delta[B8,B12]  c1102     -10000
    delta[B8,B12]  c1207     100
    delta[B8,B12]  c1208     10000
    delta[B8,B13]  c263      -35
    delta[B8,B13]  c264      -12
    delta[B8,B13]  c395      11
    delta[B8,B13]  c396      21
    delta[B8,B13]  c683      8
    delta[B8,B13]  c684      21
    delta[B8,B13]  c815      -38
    delta[B8,B13]  c816      -12
    delta[B8,B13]  c1103     -97
    delta[B8,B13]  c1104     -10000
    delta[B8,B13]  c1235     100
    delta[B8,B13]  c1236     10000
    delta[B8,B14]  c265      -37
    delta[B8,B14]  c266      -12
    delta[B8,B14]  c423      14
    delta[B8,B14]  c424      24
    delta[B8,B14]  c685      13
    delta[B8,B14]  c686      24
    delta[B8,B14]  c843      -38
    delta[B8,B14]  c844      -12
    delta[B8,B14]  c1105     -99
    delta[B8,B14]  c1106     -10000
    delta[B8,B14]  c1263     100
    delta[B8,B14]  c1264     10000
    delta[B9,B0]  c31       20
    delta[B9,B0]  c32       7
    delta[B9,B0]  c267      -5
    delta[B9,B0]  c268      -30
    delta[B9,B0]  c451      -8
    delta[B9,B0]  c452      -27
    delta[B9,B0]  c687      17
    delta[B9,B0]  c688      10
    delta[B9,B0]  c871      100
    delta[B9,B0]  c872      9997
    delta[B9,B0]  c1107     -97
    delta[B9,B0]  c1108     -10000
    delta[B9,B1]  c59       10
    delta[B9,B1]  c60       7
    delta[B9,B1]  c269      -8
    delta[B9,B1]  c270      -30
    delta[B9,B1]  c479      -8
    delta[B9,B1]  c480      -29
    delta[B9,B1]  c689      10
    delta[B9,B1]  c690      8
    delta[B9,B1]  c899      100
    delta[B9,B1]  c900      9999
    delta[B9,B1]  c1109     -100
    delta[B9,B1]  c1110     -10000
    delta[B9,B2]  c87       15
    delta[B9,B2]  c88       20
    delta[B9,B2]  c271      -8
    delta[B9,B2]  c272      -22
    delta[B9,B2]  c507      -8
    delta[B9,B2]  c508      -29
    delta[B9,B2]  c691      15
    delta[B9,B2]  c692      13
    delta[B9,B2]  c927      100
    delta[B9,B2]  c928      9999
    delta[B9,B2]  c1111     -100
    delta[B9,B2]  c1112     -9992
    delta[B9,B3]  c115      35
    delta[B9,B3]  c116      21
    delta[B9,B3]  c273      -5
    delta[B9,B3]  c274      -30
    delta[B9,B3]  c535      -8
    delta[B9,B3]  c536      -30
    delta[B9,B3]  c693      32
    delta[B9,B3]  c694      21
    delta[B9,B3]  c955      100
    delta[B9,B3]  c956      10000
    delta[B9,B3]  c1113     -97
    delta[B9,B3]  c1114     -10000
    delta[B9,B4]  c143      25
    delta[B9,B4]  c144      19
    delta[B9,B4]  c275      -8
    delta[B9,B4]  c276      -30
    delta[B9,B4]  c563      -8
    delta[B9,B4]  c564      -30
    delta[B9,B4]  c695      25
    delta[B9,B4]  c696      19
    delta[B9,B4]  c983      100
    delta[B9,B4]  c984      10000
    delta[B9,B4]  c1115     -100
    delta[B9,B4]  c1116     -10000
    delta[B9,B5]  c171      9
    delta[B9,B5]  c172      13
    delta[B9,B5]  c277      -6
    delta[B9,B5]  c278      -27
    delta[B9,B5]  c591      -8
    delta[B9,B5]  c592      -30
    delta[B9,B5]  c697      7
    delta[B9,B5]  c698      10
    delta[B9,B5]  c1011     100
    delta[B9,B5]  c1012     10000
    delta[B9,B5]  c1117     -98
    delta[B9,B5]  c1118     -9997
    delta[B9,B6]  c199      13
    delta[B9,B6]  c200      18
    delta[B9,B6]  c279      -7
    delta[B9,B6]  c280      -22
    delta[B9,B6]  c619      -8
    delta[B9,B6]  c620      -23
    delta[B9,B6]  c699      12
    delta[B9,B6]  c700      17
    delta[B9,B6]  c1039     100
    delta[B9,B6]  c1040     9993
    delta[B9,B6]  c1119     -99
    delta[B9,B6]  c1120     -9992
    delta[B9,B7]  c227      20
    delta[B9,B7]  c228      12
    delta[B9,B7]  c281      -5
    delta[B9,B7]  c282      -30
    delta[B9,B7]  c647      -8
    delta[B9,B7]  c648      -30
    delta[B9,B7]  c701      17
    delta[B9,B7]  c702      12
    delta[B9,B7]  c1067     100
    delta[B9,B7]  c1068     10000
    delta[B9,B7]  c1121     -97
    delta[B9,B7]  c1122     -10000
    delta[B9,B8]  c255      38
    delta[B9,B8]  c256      12
    delta[B9,B8]  c283      -5
    delta[B9,B8]  c284      -30
    delta[B9,B8]  c675      -8
    delta[B9,B8]  c676      -30
    delta[B9,B8]  c703      35
    delta[B9,B8]  c704      12
    delta[B9,B8]  c1095     100
    delta[B9,B8]  c1096     10000
    delta[B9,B8]  c1123     -97
    delta[B9,B8]  c1124     -10000
    delta[B9,B10]  c285      -5
    delta[B9,B10]  c286      -22
    delta[B9,B10]  c313      31
    delta[B9,B10]  c314      20
    delta[B9,B10]  c705      28
    delta[B9,B10]  c706      12
    delta[B9,B10]  c733      -8
    delta[B9,B10]  c734      -30
    delta[B9,B10]  c1125     -97
    delta[B9,B10]  c1126     -9992
    delta[B9,B10]  c1153     100
    delta[B9,B10]  c1154     10000
    delta[B9,B11]  c287      -8
    delta[B9,B11]  c288      -27
    delta[B9,B11]  c341      8
    delta[B9,B11]  c342      13
    delta[B9,B11]  c707      8
    delta[B9,B11]  c708      10
    delta[B9,B11]  c761      -8
    delta[B9,B11]  c762      -30
    delta[B9,B11]  c1127     -100
    delta[B9,B11]  c1128     -9997
    delta[B9,B11]  c1181     100
    delta[B9,B11]  c1182     10000
    delta[B9,B12]  c289      -5
    delta[B9,B12]  c290      -22
    delta[B9,B12]  c369      12
    delta[B9,B12]  c370      23
    delta[B9,B12]  c709      9
    delta[B9,B12]  c710      15
    delta[B9,B12]  c789      -8
    delta[B9,B12]  c790      -30
    delta[B9,B12]  c1129     -97
    delta[B9,B12]  c1130     -9992
    delta[B9,B12]  c1209     100
    delta[B9,B12]  c1210     10000
    delta[B9,B13]  c291      -5
    delta[B9,B13]  c292      -26
    delta[B9,B13]  c397      11
    delta[B9,B13]  c398      16
    delta[B9,B13]  c711      8
    delta[B9,B13]  c712      17
    delta[B9,B13]  c817      -8
    delta[B9,B13]  c818      -25
    delta[B9,B13]  c1131     -97
    delta[B9,B13]  c1132     -9996
    delta[B9,B13]  c1237     100
    delta[B9,B13]  c1238     9995
    delta[B9,B14]  c293      -7
    delta[B9,B14]  c294      -26
    delta[B9,B14]  c425      14
    delta[B9,B14]  c426      17
    delta[B9,B14]  c713      13
    delta[B9,B14]  c714      20
    delta[B9,B14]  c845      -8
    delta[B9,B14]  c846      -23
    delta[B9,B14]  c1133     -99
    delta[B9,B14]  c1134     -9996
    delta[B9,B14]  c1265     100
    delta[B9,B14]  c1266     9993
    delta[B10,B0]  c33       20
    delta[B10,B0]  c34       7
    delta[B10,B0]  c295      -31
    delta[B10,B0]  c296      -20
    delta[B10,B0]  c453      -31
    delta[B10,B0]  c454      -17
    delta[B10,B0]  c715      20
    delta[B10,B0]  c716      10
    delta[B10,B0]  c873      100
    delta[B10,B0]  c874      9997
    delta[B10,B0]  c1135     -100
    delta[B10,B0]  c1136     -10000
    delta[B10,B1]  c61       9
    delta[B10,B1]  c62       7
    delta[B10,B1]  c297      -31
    delta[B10,B1]  c298      -20
    delta[B10,B1]  c481      -30
    delta[B10,B1]  c482      -19
    delta[B10,B1]  c717      10
    delta[B10,B1]  c718      8
    delta[B10,B1]  c901      99
    delta[B10,B1]  c902      9999
    delta[B10,B1]  c1137     -100
    delta[B10,B1]  c1138     -10000
    delta[B10,B2]  c89       -10
    delta[B10,B2]  c90       20
    delta[B10,B2]  c299      31
    delta[B10,B2]  c300      -20
    delta[B10,B2]  c509      26
    delta[B10,B2]  c510      -19
    delta[B10,B2]  c719      -15
    delta[B10,B2]  c720      21
    delta[B10,B2]  c929      -95
    delta[B10,B2]  c930      9999
    delta[B10,B2]  c1139     100
    delta[B10,B2]  c1140     -10000
    delta[B10,B3]  c117      -23
    delta[B10,B3]  c118      21
    delta[B10,B3]  c301      31
    delta[B10,B3]  c302      -20
    delta[B10,B3]  c537      19
    delta[B10,B3]  c538      -20
    delta[B10,B3]  c721      -35
    delta[B10,B3]  c722      21
    delta[B10,B3]  c957      -88
    delta[B10,B3]  c958      10000
    delta[B10,B3]  c1141     100
    delta[B10,B3]  c1142     -10000
    delta[B10,B4]  c145      -17
    delta[B10,B4]  c146      19
    delta[B10,B4]  c303      31
    delta[B10,B4]  c304      -20
    delta[B10,B4]  c565      23
    delta[B10,B4]  c566      -20
    delta[B10,B4]  c723      -25
    delta[B10,B4]  c724      19
    delta[B10,B4]  c985      -92
    delta[B10,B4]  c986      10000
    delta[B10,B4]  c1143     100
    delta[B10,B4]  c1144     -10000
    delta[B10,B5]  c173      -9
    delta[B10,B5]  c174      13
    delta[B10,B5]  c305      31
    delta[B10,B5]  c306      -20
    delta[B10,B5]  c593      31
    delta[B10,B5]  c594      -20
    delta[B10,B5]  c725      -9
    delta[B10,B5]  c726      13
    delta[B10,B5]  c1013     -100
    delta[B10,B5]  c1014     10000
    delta[B10,B5]  c1145     100
    delta[B10,B5]  c1146     -10000
    delta[B10,B6]  c201      -13
    delta[B10,B6]  c202      17
    delta[B10,B6]  c307      31
    delta[B10,B6]  c308      -20
    delta[B10,B6]  c621      31
    delta[B10,B6]  c622      -12
    delta[B10,B6]  c727      -13
    delta[B10,B6]  c728      25
    delta[B10,B6]  c1041     -100
    delta[B10,B6]  c1042     9992
    delta[B10,B6]  c1147     100
    delta[B10,B6]  c1148     -10000
    delta[B10,B7]  c229      -19
    delta[B10,B7]  c230      12
    delta[B10,B7]  c309      31
    delta[B10,B7]  c310      -20
    delta[B10,B7]  c649      30
    delta[B10,B7]  c650      -20
    delta[B10,B7]  c729      -20
    delta[B10,B7]  c730      12
    delta[B10,B7]  c1069     -99
    delta[B10,B7]  c1070     10000
    delta[B10,B7]  c1149     100
    delta[B10,B7]  c1150     -10000
    delta[B10,B8]  c257      -28
    delta[B10,B8]  c258      12
    delta[B10,B8]  c311      31
    delta[B10,B8]  c312      -20
    delta[B10,B8]  c677      21
    delta[B10,B8]  c678      -20
    delta[B10,B8]  c731      -38
    delta[B10,B8]  c732      12
    delta[B10,B8]  c1097     -90
    delta[B10,B8]  c1098     10000
    delta[B10,B8]  c1151     100
    delta[B10,B8]  c1152     -10000
    delta[B10,B9]  c285      -5
    delta[B10,B9]  c286      22
    delta[B10,B9]  c313      31
    delta[B10,B9]  c314      -20
    delta[B10,B9]  c705      28
    delta[B10,B9]  c706      -12
    delta[B10,B9]  c733      -8
    delta[B10,B9]  c734      30
    delta[B10,B9]  c1125     -97
    delta[B10,B9]  c1126     9992
    delta[B10,B9]  c1153     100
    delta[B10,B9]  c1154     -10000
    delta[B10,B11]  c315      31
    delta[B10,B11]  c316      -20
    delta[B10,B11]  c343      -8
    delta[B10,B11]  c344      13
    delta[B10,B11]  c735      -8
    delta[B10,B11]  c736      13
    delta[B10,B11]  c763      31
    delta[B10,B11]  c764      -20
    delta[B10,B11]  c1155     100
    delta[B10,B11]  c1156     -10000
    delta[B10,B11]  c1183     -100
    delta[B10,B11]  c1184     10000
    delta[B10,B12]  c317      31
    delta[B10,B12]  c318      -20
    delta[B10,B12]  c371      -12
    delta[B10,B12]  c372      23
    delta[B10,B12]  c737      -12
    delta[B10,B12]  c738      23
    delta[B10,B12]  c791      31
    delta[B10,B12]  c792      -20
    delta[B10,B12]  c1157     100
    delta[B10,B12]  c1158     -10000
    delta[B10,B12]  c1211     -100
    delta[B10,B12]  c1212     10000
    delta[B10,B13]  c319      31
    delta[B10,B13]  c320      -20
    delta[B10,B13]  c399      -11
    delta[B10,B13]  c400      16
    delta[B10,B13]  c739      -11
    delta[B10,B13]  c740      21
    delta[B10,B13]  c819      31
    delta[B10,B13]  c820      -15
    delta[B10,B13]  c1159     100
    delta[B10,B13]  c1160     -10000
    delta[B10,B13]  c1239     -100
    delta[B10,B13]  c1240     9995
    delta[B10,B14]  c321      31
    delta[B10,B14]  c322      -20
    delta[B10,B14]  c427      -14
    delta[B10,B14]  c428      16
    delta[B10,B14]  c741      -14
    delta[B10,B14]  c742      24
    delta[B10,B14]  c847      31
    delta[B10,B14]  c848      -12
    delta[B10,B14]  c1161     100
    delta[B10,B14]  c1162     -10000
    delta[B10,B14]  c1267     -100
    delta[B10,B14]  c1268     9992
    delta[B11,B0]  c35       20
    delta[B11,B0]  c36       7
    delta[B11,B0]  c323      -8
    delta[B11,B0]  c324      -13
    delta[B11,B0]  c455      -8
    delta[B11,B0]  c456      -10
    delta[B11,B0]  c743      20
    delta[B11,B0]  c744      10
    delta[B11,B0]  c875      100
    delta[B11,B0]  c876      9997
    delta[B11,B0]  c1163     -100
    delta[B11,B0]  c1164     -10000
    delta[B11,B1]  c63       10
    delta[B11,B1]  c64       7
    delta[B11,B1]  c325      -8
    delta[B11,B1]  c326      -13
    delta[B11,B1]  c483      -8
    delta[B11,B1]  c484      -12
    delta[B11,B1]  c745      10
    delta[B11,B1]  c746      8
    delta[B11,B1]  c903      100
    delta[B11,B1]  c904      9999
    delta[B11,B1]  c1165     -100
    delta[B11,B1]  c1166     -10000
    delta[B11,B2]  c91       -15
    delta[B11,B2]  c92       20
    delta[B11,B2]  c327      8
    delta[B11,B2]  c328      -13
    delta[B11,B2]  c511      8
    delta[B11,B2]  c512      -12
    delta[B11,B2]  c747      -15
    delta[B11,B2]  c748      21
    delta[B11,B2]  c931      -100
    delta[B11,B2]  c932      9999
    delta[B11,B2]  c1167     100
    delta[B11,B2]  c1168     -10000
    delta[B11,B3]  c119      -35
    delta[B11,B3]  c120      21
    delta[B11,B3]  c329      8
    delta[B11,B3]  c330      -13
    delta[B11,B3]  c539      8
    delta[B11,B3]  c540      -13
    delta[B11,B3]  c749      -35
    delta[B11,B3]  c750      21
    delta[B11,B3]  c959      -100
    delta[B11,B3]  c960      10000
    delta[B11,B3]  c1169     100
    delta[B11,B3]  c1170     -10000
    delta[B11,B4]  c147      -25
    delta[B11,B4]  c148      19
    delta[B11,B4]  c331      8
    delta[B11,B4]  c332      -13
    delta[B11,B4]  c567      8
    delta[B11,B4]  c568      -13
    delta[B11,B4]  c751      -25
    delta[B11,B4]  c752      19
    delta[B11,B4]  c987      -100
    delta[B11,B4]  c988      10000
    delta[B11,B4]  c1171     100
    delta[B11,B4]  c1172     -10000
    delta[B11,B5]  c175      -9
    delta[B11,B5]  c176      13
    delta[B11,B5]  c333      8
    delta[B11,B5]  c334      -13
    delta[B11,B5]  c595      8
    delta[B11,B5]  c596      -13
    delta[B11,B5]  c753      -9
    delta[B11,B5]  c754      13
    delta[B11,B5]  c1015     -100
    delta[B11,B5]  c1016     10000
    delta[B11,B5]  c1173     100
    delta[B11,B5]  c1174     -10000
    delta[B11,B6]  c203      -13
    delta[B11,B6]  c204      22
    delta[B11,B6]  c335      8
    delta[B11,B6]  c336      -13
    delta[B11,B6]  c623      8
    delta[B11,B6]  c624      -10
    delta[B11,B6]  c755      -13
    delta[B11,B6]  c756      25
    delta[B11,B6]  c1043     -100
    delta[B11,B6]  c1044     9997
    delta[B11,B6]  c1175     100
    delta[B11,B6]  c1176     -10000
    delta[B11,B7]  c231      -20
    delta[B11,B7]  c232      12
    delta[B11,B7]  c337      8
    delta[B11,B7]  c338      -13
    delta[B11,B7]  c651      8
    delta[B11,B7]  c652      -13
    delta[B11,B7]  c757      -20
    delta[B11,B7]  c758      12
    delta[B11,B7]  c1071     -100
    delta[B11,B7]  c1072     10000
    delta[B11,B7]  c1177     100
    delta[B11,B7]  c1178     -10000
    delta[B11,B8]  c259      -38
    delta[B11,B8]  c260      12
    delta[B11,B8]  c339      8
    delta[B11,B8]  c340      -13
    delta[B11,B8]  c679      8
    delta[B11,B8]  c680      -13
    delta[B11,B8]  c759      -38
    delta[B11,B8]  c760      12
    delta[B11,B8]  c1099     -100
    delta[B11,B8]  c1100     10000
    delta[B11,B8]  c1179     100
    delta[B11,B8]  c1180     -10000
    delta[B11,B9]  c287      -8
    delta[B11,B9]  c288      27
    delta[B11,B9]  c341      8
    delta[B11,B9]  c342      -13
    delta[B11,B9]  c707      8
    delta[B11,B9]  c708      -10
    delta[B11,B9]  c761      -8
    delta[B11,B9]  c762      30
    delta[B11,B9]  c1127     -100
    delta[B11,B9]  c1128     9997
    delta[B11,B9]  c1181     100
    delta[B11,B9]  c1182     -10000
    delta[B11,B10]  c315      31
    delta[B11,B10]  c316      20
    delta[B11,B10]  c343      -8
    delta[B11,B10]  c344      -13
    delta[B11,B10]  c735      -8
    delta[B11,B10]  c736      -13
    delta[B11,B10]  c763      31
    delta[B11,B10]  c764      20
    delta[B11,B10]  c1155     100
    delta[B11,B10]  c1156     10000
    delta[B11,B10]  c1183     -100
    delta[B11,B10]  c1184     -10000
    delta[B11,B12]  c345      8
    delta[B11,B12]  c346      -13
    delta[B11,B12]  c373      -12
    delta[B11,B12]  c374      23
    delta[B11,B12]  c765      -12
    delta[B11,B12]  c766      23
    delta[B11,B12]  c793      8
    delta[B11,B12]  c794      -13
    delta[B11,B12]  c1185     100
    delta[B11,B12]  c1186     -10000
    delta[B11,B12]  c1213     -100
    delta[B11,B12]  c1214     10000
    delta[B11,B13]  c347      8
    delta[B11,B13]  c348      -13
    delta[B11,B13]  c401      -11
    delta[B11,B13]  c402      18
    delta[B11,B13]  c767      -11
    delta[B11,B13]  c768      21
    delta[B11,B13]  c821      8
    delta[B11,B13]  c822      -10
    delta[B11,B13]  c1187     100
    delta[B11,B13]  c1188     -10000
    delta[B11,B13]  c1241     -100
    delta[B11,B13]  c1242     9997
    delta[B11,B14]  c349      8
    delta[B11,B14]  c350      -13
    delta[B11,B14]  c429      -14
    delta[B11,B14]  c430      21
    delta[B11,B14]  c769      -14
    delta[B11,B14]  c770      24
    delta[B11,B14]  c849      8
    delta[B11,B14]  c850      -10
    delta[B11,B14]  c1189     100
    delta[B11,B14]  c1190     -10000
    delta[B11,B14]  c1269     -100
    delta[B11,B14]  c1270     9997
    delta[B12,B0]  c37       20
    delta[B12,B0]  c38       7
    delta[B12,B0]  c351      -12
    delta[B12,B0]  c352      -23
    delta[B12,B0]  c457      -12
    delta[B12,B0]  c458      -20
    delta[B12,B0]  c771      20
    delta[B12,B0]  c772      10
    delta[B12,B0]  c877      100
    delta[B12,B0]  c878      9997
    delta[B12,B0]  c1191     -100
    delta[B12,B0]  c1192     -10000
    delta[B12,B1]  c65       9
    delta[B12,B1]  c66       7
    delta[B12,B1]  c353      -12
    delta[B12,B1]  c354      -23
    delta[B12,B1]  c485      -11
    delta[B12,B1]  c486      -22
    delta[B12,B1]  c773      10
    delta[B12,B1]  c774      8
    delta[B12,B1]  c905      99
    delta[B12,B1]  c906      9999
    delta[B12,B1]  c1193     -100
    delta[B12,B1]  c1194     -10000
    delta[B12,B2]  c93       -11
    delta[B12,B2]  c94       20
    delta[B12,B2]  c355      12
    delta[B12,B2]  c356      -23
    delta[B12,B2]  c513      8
    delta[B12,B2]  c514      -22
    delta[B12,B2]  c775      -15
    delta[B12,B2]  c776      21
    delta[B12,B2]  c933      -96
    delta[B12,B2]  c934      9999
    delta[B12,B2]  c1195     100
    delta[B12,B2]  c1196     -10000
    delta[B12,B3]  c121      -31
    delta[B12,B3]  c122      21
    delta[B12,B3]  c357      12
    delta[B12,B3]  c358      -23
    delta[B12,B3]  c541      8
    delta[B12,B3]  c542      -23
    delta[B12,B3]  c777      -35
    delta[B12,B3]  c778      21
    delta[B12,B3]  c961      -96
    delta[B12,B3]  c962      10000
    delta[B12,B3]  c1197     100
    delta[B12,B3]  c1198     -10000
    delta[B12,B4]  c149      -21
    delta[B12,B4]  c150      19
    delta[B12,B4]  c359      12
    delta[B12,B4]  c360      -23
    delta[B12,B4]  c569      8
    delta[B12,B4]  c570      -23
    delta[B12,B4]  c779      -25
    delta[B12,B4]  c780      19
    delta[B12,B4]  c989      -96
    delta[B12,B4]  c990      10000
    delta[B12,B4]  c1199     100
    delta[B12,B4]  c1200     -10000
    delta[B12,B5]  c177      -9
    delta[B12,B5]  c178      13
    delta[B12,B5]  c361      12
    delta[B12,B5]  c362      -23
    delta[B12,B5]  c597      12
    delta[B12,B5]  c598      -23
    delta[B12,B5]  c781      -9
    delta[B12,B5]  c782      13
    delta[B12,B5]  c1017     -100
    delta[B12,B5]  c1018     10000
    delta[B12,B5]  c1201     100
    delta[B12,B5]  c1202     -10000
    delta[B12,B6]  c205      -13
    delta[B12,B6]  c206      17
    delta[B12,B6]  c363      12
    delta[B12,B6]  c364      -23
    delta[B12,B6]  c625      12
    delta[B12,B6]  c626      -15
    delta[B12,B6]  c783      -13
    delta[B12,B6]  c784      25
    delta[B12,B6]  c1045     -100
    delta[B12,B6]  c1046     9992
    delta[B12,B6]  c1203     100
    delta[B12,B6]  c1204     -10000
    delta[B12,B7]  c233      -19
    delta[B12,B7]  c234      12
    delta[B12,B7]  c365      12
    delta[B12,B7]  c366      -23
    delta[B12,B7]  c653      11
    delta[B12,B7]  c654      -23
    delta[B12,B7]  c785      -20
    delta[B12,B7]  c786      12
    delta[B12,B7]  c1073     -99
    delta[B12,B7]  c1074     10000
    delta[B12,B7]  c1205     100
    delta[B12,B7]  c1206     -10000
    delta[B12,B8]  c261      -34
    delta[B12,B8]  c262      12
    delta[B12,B8]  c367      12
    delta[B12,B8]  c368      -23
    delta[B12,B8]  c681      8
    delta[B12,B8]  c682      -23
    delta[B12,B8]  c787      -38
    delta[B12,B8]  c788      12
    delta[B12,B8]  c1101     -96
    delta[B12,B8]  c1102     10000
    delta[B12,B8]  c1207     100
    delta[B12,B8]  c1208     -10000
    delta[B12,B9]  c289      -5
    delta[B12,B9]  c290      22
    delta[B12,B9]  c369      12
    delta[B12,B9]  c370      -23
    delta[B12,B9]  c709      9
    delta[B12,B9]  c710      -15
    delta[B12,B9]  c789      -8
    delta[B12,B9]  c790      30
    delta[B12,B9]  c1129     -97
    delta[B12,B9]  c1130     9992
    delta[B12,B9]  c1209     100
    delta[B12,B9]  c1210     -10000
    delta[B12,B10]  c317      31
    delta[B12,B10]  c318      20
    delta[B12,B10]  c371      -12
    delta[B12,B10]  c372      -23
    delta[B12,B10]  c737      -12
    delta[B12,B10]  c738      -23
    delta[B12,B10]  c791      31
    delta[B12,B10]  c792      20
    delta[B12,B10]  c1157     100
    delta[B12,B10]  c1158     10000
    delta[B12,B10]  c1211     -100
    delta[B12,B10]  c1212     -10000
    delta[B12,B11]  c345      8
    delta[B12,B11]  c346      13
    delta[B12,B11]  c373      -12
    delta[B12,B11]  c374      -23
    delta[B12,B11]  c765      -12
    delta[B12,B11]  c766      -23
    delta[B12,B11]  c793      8
    delta[B12,B11]  c794      13
    delta[B12,B11]  c1185     100
    delta[B12,B11]  c1186     10000
    delta[B12,B11]  c1213     -100
    delta[B12,B11]  c1214     -10000
    delta[B12,B13]  c375      12
    delta[B12,B13]  c376      -23
    delta[B12,B13]  c403      -11
    delta[B12,B13]  c404      16
    delta[B12,B13]  c795      -11
    delta[B12,B13]  c796      21
    delta[B12,B13]  c823      12
    delta[B12,B13]  c824      -18
    delta[B12,B13]  c1215     100
    delta[B12,B13]  c1216     -10000
    delta[B12,B13]  c1243     -100
    delta[B12,B13]  c1244     9995
    delta[B12,B14]  c377      12
    delta[B12,B14]  c378      -23
    delta[B12,B14]  c431      -14
    delta[B12,B14]  c432      16
    delta[B12,B14]  c797      -14
    delta[B12,B14]  c798      24
    delta[B12,B14]  c851      12
    delta[B12,B14]  c852      -15
    delta[B12,B14]  c1217     100
    delta[B12,B14]  c1218     -10000
    delta[B12,B14]  c1271     -100
    delta[B12,B14]  c1272     9992
    delta[B13,B0]  c39       20
    delta[B13,B0]  c40       7
    delta[B13,B0]  c379      -11
    delta[B13,B0]  c380      -21
    delta[B13,B0]  c459      -11
    delta[B13,B0]  c460      -18
    delta[B13,B0]  c799      20
    delta[B13,B0]  c800      10
    delta[B13,B0]  c879      100
    delta[B13,B0]  c880      9997
    delta[B13,B0]  c1219     -100
    delta[B13,B0]  c1220     -10000
    delta[B13,B1]  c67       9
    delta[B13,B1]  c68       7
    delta[B13,B1]  c381      -11
    delta[B13,B1]  c382      -21
    delta[B13,B1]  c487      -10
    delta[B13,B1]  c488      -20
    delta[B13,B1]  c801      10
    delta[B13,B1]  c802      8
    delta[B13,B1]  c907      99
    delta[B13,B1]  c908      9999
    delta[B13,B1]  c1221     -100
    delta[B13,B1]  c1222     -10000
    delta[B13,B2]  c95       -12
    delta[B13,B2]  c96       20
    delta[B13,B2]  c383      11
    delta[B13,B2]  c384      -16
    delta[B13,B2]  c515      8
    delta[B13,B2]  c516      -20
    delta[B13,B2]  c803      -15
    delta[B13,B2]  c804      16
    delta[B13,B2]  c935      -97
    delta[B13,B2]  c936      9999
    delta[B13,B2]  c1223     100
    delta[B13,B2]  c1224     -9995
    delta[B13,B3]  c123      -32
    delta[B13,B3]  c124      21
    delta[B13,B3]  c385      11
    delta[B13,B3]  c386      -21
    delta[B13,B3]  c543      8
    delta[B13,B3]  c544      -21
    delta[B13,B3]  c805      -35
    delta[B13,B3]  c806      21
    delta[B13,B3]  c963      -97
    delta[B13,B3]  c964      10000
    delta[B13,B3]  c1225     100
    delta[B13,B3]  c1226     -10000
    delta[B13,B4]  c151      -22
    delta[B13,B4]  c152      19
    delta[B13,B4]  c387      11
    delta[B13,B4]  c388      -21
    delta[B13,B4]  c571      8
    delta[B13,B4]  c572      -21
    delta[B13,B4]  c807      -25
    delta[B13,B4]  c808      19
    delta[B13,B4]  c991      -97
    delta[B13,B4]  c992      10000
    delta[B13,B4]  c1227     100
    delta[B13,B4]  c1228     -10000
    delta[B13,B5]  c179      -9
    delta[B13,B5]  c180      13
    delta[B13,B5]  c389      11
    delta[B13,B5]  c390      -18
    delta[B13,B5]  c599      11
    delta[B13,B5]  c600      -21
    delta[B13,B5]  c809      -9
    delta[B13,B5]  c810      10
    delta[B13,B5]  c1019     -100
    delta[B13,B5]  c1020     10000
    delta[B13,B5]  c1229     100
    delta[B13,B5]  c1230     -9997
    delta[B13,B6]  c207      -13
    delta[B13,B6]  c208      21
    delta[B13,B6]  c391      11
    delta[B13,B6]  c392      -16
    delta[B13,B6]  c627      11
    delta[B13,B6]  c628      -17
    delta[B13,B6]  c811      -13
    delta[B13,B6]  c812      20
    delta[B13,B6]  c1047     -100
    delta[B13,B6]  c1048     9996
    delta[B13,B6]  c1231     100
    delta[B13,B6]  c1232     -9995
    delta[B13,B7]  c235      -19
    delta[B13,B7]  c236      12
    delta[B13,B7]  c393      11
    delta[B13,B7]  c394      -21
    delta[B13,B7]  c655      10
    delta[B13,B7]  c656      -21
    delta[B13,B7]  c813      -20
    delta[B13,B7]  c814      12
    delta[B13,B7]  c1075     -99
    delta[B13,B7]  c1076     10000
    delta[B13,B7]  c1233     100
    delta[B13,B7]  c1234     -10000
    delta[B13,B8]  c263      -35
    delta[B13,B8]  c264      12
    delta[B13,B8]  c395      11
    delta[B13,B8]  c396      -21
    delta[B13,B8]  c683      8
    delta[B13,B8]  c684      -21
    delta[B13,B8]  c815      -38
    delta[B13,B8]  c816      12
    delta[B13,B8]  c1103     -97
    delta[B13,B8]  c1104     10000
    delta[B13,B8]  c1235     100
    delta[B13,B8]  c1236     -10000
    delta[B13,B9]  c291      -5
    delta[B13,B9]  c292      26
    delta[B13,B9]  c397      11
    delta[B13,B9]  c398      -16
    delta[B13,B9]  c711      8
    delta[B13,B9]  c712      -17
    delta[B13,B9]  c817      -8
    delta[B13,B9]  c818      25
    delta[B13,B9]  c1131     -97
    delta[B13,B9]  c1132     9996
    delta[B13,B9]  c1237     100
    delta[B13,B9]  c1238     -9995
    delta[B13,B10]  c319      31
    delta[B13,B10]  c320      20
    delta[B13,B10]  c399      -11
    delta[B13,B10]  c400      -16
    delta[B13,B10]  c739      -11
    delta[B13,B10]  c740      -21
    delta[B13,B10]  c819      31
    delta[B13,B10]  c820      15
    delta[B13,B10]  c1159     100
    delta[B13,B10]  c1160     10000
    delta[B13,B10]  c1239     -100
    delta[B13,B10]  c1240     -9995
    delta[B13,B11]  c347      8
    delta[B13,B11]  c348      13
    delta[B13,B11]  c401      -11
    delta[B13,B11]  c402      -18
    delta[B13,B11]  c767      -11
    delta[B13,B11]  c768      -21
    delta[B13,B11]  c821      8
    delta[B13,B11]  c822      10
    delta[B13,B11]  c1187     100
    delta[B13,B11]  c1188     10000
    delta[B13,B11]  c1241     -100
    delta[B13,B11]  c1242     -9997
    delta[B13,B12]  c375      12
    delta[B13,B12]  c376      23
    delta[B13,B12]  c403      -11
    delta[B13,B12]  c404      -16
    delta[B13,B12]  c795      -11
    delta[B13,B12]  c796      -21
    delta[B13,B12]  c823      12
    delta[B13,B12]  c824      18
    delta[B13,B12]  c1215     100
    delta[B13,B12]  c1216     10000
    delta[B13,B12]  c1243     -100
    delta[B13,B12]  c1244     -9995
    delta[B13,B14]  c405      11
    delta[B13,B14]  c406      -17
    delta[B13,B14]  c433      -14
    delta[B13,B14]  c434      20
    delta[B13,B14]  c825      -14
    delta[B13,B14]  c826      20
    delta[B13,B14]  c853      11
    delta[B13,B14]  c854      -17
    delta[B13,B14]  c1245     100
    delta[B13,B14]  c1246     -9996
    delta[B13,B14]  c1273     -100
    delta[B13,B14]  c1274     9996
    delta[B14,B0]  c41       20
    delta[B14,B0]  c42       7
    delta[B14,B0]  c407      -14
    delta[B14,B0]  c408      -24
    delta[B14,B0]  c461      -14
    delta[B14,B0]  c462      -21
    delta[B14,B0]  c827      20
    delta[B14,B0]  c828      10
    delta[B14,B0]  c881      100
    delta[B14,B0]  c882      9997
    delta[B14,B0]  c1247     -100
    delta[B14,B0]  c1248     -10000
    delta[B14,B1]  c69       9
    delta[B14,B1]  c70       7
    delta[B14,B1]  c409      -14
    delta[B14,B1]  c410      -24
    delta[B14,B1]  c489      -13
    delta[B14,B1]  c490      -23
    delta[B14,B1]  c829      10
    delta[B14,B1]  c830      8
    delta[B14,B1]  c909      99
    delta[B14,B1]  c910      9999
    delta[B14,B1]  c1249     -100
    delta[B14,B1]  c1250     -10000
    delta[B14,B2]  c97       -14
    delta[B14,B2]  c98       20
    delta[B14,B2]  c411      14
    delta[B14,B2]  c412      -16
    delta[B14,B2]  c517      13
    delta[B14,B2]  c518      -23
    delta[B14,B2]  c831      -15
    delta[B14,B2]  c832      13
    delta[B14,B2]  c937      -99
    delta[B14,B2]  c938      9999
    delta[B14,B2]  c1251     100
    delta[B14,B2]  c1252     -9992
    delta[B14,B3]  c125      -34
    delta[B14,B3]  c126      21
    delta[B14,B3]  c413      14
    delta[B14,B3]  c414      -24
    delta[B14,B3]  c545      13
    delta[B14,B3]  c546      -24
    delta[B14,B3]  c833      -35
    delta[B14,B3]  c834      21
    delta[B14,B3]  c965      -99
    delta[B14,B3]  c966      10000
    delta[B14,B3]  c1253     100
    delta[B14,B3]  c1254     -10000
    delta[B14,B4]  c153      -24
    delta[B14,B4]  c154      19
    delta[B14,B4]  c415      14
    delta[B14,B4]  c416      -24
    delta[B14,B4]  c573      13
    delta[B14,B4]  c574      -24
    delta[B14,B4]  c835      -25
    delta[B14,B4]  c836      19
    delta[B14,B4]  c993      -99
    delta[B14,B4]  c994      10000
    delta[B14,B4]  c1255     100
    delta[B14,B4]  c1256     -10000
    delta[B14,B5]  c181      -9
    delta[B14,B5]  c182      13
    delta[B14,B5]  c417      14
    delta[B14,B5]  c418      -21
    delta[B14,B5]  c601      14
    delta[B14,B5]  c602      -24
    delta[B14,B5]  c837      -9
    delta[B14,B5]  c838      10
    delta[B14,B5]  c1021     -100
    delta[B14,B5]  c1022     10000
    delta[B14,B5]  c1257     100
    delta[B14,B5]  c1258     -9997
    delta[B14,B6]  c209      -13
    delta[B14,B6]  c210      21
    delta[B14,B6]  c419      14
    delta[B14,B6]  c420      -16
    delta[B14,B6]  c629      14
    delta[B14,B6]  c630      -20
    delta[B14,B6]  c839      -13
    delta[B14,B6]  c840      17
    delta[B14,B6]  c1049     -100
    delta[B14,B6]  c1050     9996
    delta[B14,B6]  c1259     100
    delta[B14,B6]  c1260     -9992
    delta[B14,B7]  c237      -19
    delta[B14,B7]  c238      12
    delta[B14,B7]  c421      14
    delta[B14,B7]  c422      -24
    delta[B14,B7]  c657      13
    delta[B14,B7]  c658      -24
    delta[B14,B7]  c841      -20
    delta[B14,B7]  c842      12
    delta[B14,B7]  c1077     -99
    delta[B14,B7]  c1078     10000
    delta[B14,B7]  c1261     100
    delta[B14,B7]  c1262     -10000
    delta[B14,B8]  c265      -37
    delta[B14,B8]  c266      12
    delta[B14,B8]  c423      14
    delta[B14,B8]  c424      -24
    delta[B14,B8]  c685      13
    delta[B14,B8]  c686      -24
    delta[B14,B8]  c843      -38
    delta[B14,B8]  c844      12
    delta[B14,B8]  c1105     -99
    delta[B14,B8]  c1106     10000
    delta[B14,B8]  c1263     100
    delta[B14,B8]  c1264     -10000
    delta[B14,B9]  c293      -7
    delta[B14,B9]  c294      26
    delta[B14,B9]  c425      14
    delta[B14,B9]  c426      -17
    delta[B14,B9]  c713      13
    delta[B14,B9]  c714      -20
    delta[B14,B9]  c845      -8
    delta[B14,B9]  c846      23
    delta[B14,B9]  c1133     -99
    delta[B14,B9]  c1134     9996
    delta[B14,B9]  c1265     100
    delta[B14,B9]  c1266     -9993
    delta[B14,B10]  c321      31
    delta[B14,B10]  c322      20
    delta[B14,B10]  c427      -14
    delta[B14,B10]  c428      -16
    delta[B14,B10]  c741      -14
    delta[B14,B10]  c742      -24
    delta[B14,B10]  c847      31
    delta[B14,B10]  c848      12
    delta[B14,B10]  c1161     100
    delta[B14,B10]  c1162     10000
    delta[B14,B10]  c1267     -100
    delta[B14,B10]  c1268     -9992
    delta[B14,B11]  c349      8
    delta[B14,B11]  c350      13
    delta[B14,B11]  c429      -14
    delta[B14,B11]  c430      -21
    delta[B14,B11]  c769      -14
    delta[B14,B11]  c770      -24
    delta[B14,B11]  c849      8
    delta[B14,B11]  c850      10
    delta[B14,B11]  c1189     100
    delta[B14,B11]  c1190     10000
    delta[B14,B11]  c1269     -100
    delta[B14,B11]  c1270     -9997
    delta[B14,B12]  c377      12
    delta[B14,B12]  c378      23
    delta[B14,B12]  c431      -14
    delta[B14,B12]  c432      -16
    delta[B14,B12]  c797      -14
    delta[B14,B12]  c798      -24
    delta[B14,B12]  c851      12
    delta[B14,B12]  c852      15
    delta[B14,B12]  c1217     100
    delta[B14,B12]  c1218     10000
    delta[B14,B12]  c1271     -100
    delta[B14,B12]  c1272     -9992
    delta[B14,B13]  c405      11
    delta[B14,B13]  c406      17
    delta[B14,B13]  c433      -14
    delta[B14,B13]  c434      -20
    delta[B14,B13]  c825      -14
    delta[B14,B13]  c826      -20
    delta[B14,B13]  c853      11
    delta[B14,B13]  c854      17
    delta[B14,B13]  c1245     100
    delta[B14,B13]  c1246     9996
    delta[B14,B13]  c1273     -100
    delta[B14,B13]  c1274     -9996
    MARKER    'MARKER'                 'INTEND'
RHS
    RHS1      c0        6.5
    RHS1      c1        4.5
    RHS1      c2        7
    RHS1      c3        10.5
    RHS1      c4        9.5
    RHS1      c5        5
    RHS1      c6        12.5
    RHS1      c7        6
    RHS1      c8        6
    RHS1      c9        15.5
    RHS1      c10       5.5
    RHS1      c11       5
    RHS1      c12       6.5
    RHS1      c13       11
    RHS1      c14       14
    RHS1      c15       24.5
    RHS1      c16       3.5
    RHS1      c17       25
    RHS1      c18       14
    RHS1      c19       37
    RHS1      c20       10.5
    RHS1      c21       28.5
    RHS1      c22       9.5
    RHS1      c23       25.5
    RHS1      c24       8
    RHS1      c25       27
    RHS1      c26       12.5
    RHS1      c27       33.5
    RHS1      c28       6
    RHS1      c29       39.5
    RHS1      c30       6
    RHS1      c31       22.5
    RHS1      c32       14.5
    RHS1      c33       42
    RHS1      c34       14.5
    RHS1      c35       24
    RHS1      c36       8
    RHS1      c37       28
    RHS1      c38       16.5
    RHS1      c39       27
    RHS1      c40       10
    RHS1      c41       27.5
    RHS1      c42       10
    RHS1      c43       5
    RHS1      c44       3.5
    RHS1      c45       15
    RHS1      c46       14
    RHS1      c47       26
    RHS1      c48       10.5
    RHS1      c49       18.5
    RHS1      c50       9.5
    RHS1      c51       14.5
    RHS1      c52       8
    RHS1      c53       16
    RHS1      c54       12.5
    RHS1      c55       22.5
    RHS1      c56       6
    RHS1      c57       28.5
    RHS1      c58       6
    RHS1      c59       12.5
    RHS1      c60       14.5
    RHS1      c61       31
    RHS1      c62       14.5
    RHS1      c63       14
    RHS1      c64       8
    RHS1      c65       17
    RHS1      c66       16.5
    RHS1      c67       16
    RHS1      c68       10
    RHS1      c69       16.5
    RHS1      c70       10
    RHS1      c71       4
    RHS1      c72       3.5
    RHS1      c73       -10.5
    RHS1      c74       3.5
    RHS1      c75       27
    RHS1      c76       10.5
    RHS1      c77       23.5
    RHS1      c78       9.5
    RHS1      c79       18.5
    RHS1      c80       8
    RHS1      c81       21
    RHS1      c82       12.5
    RHS1      c83       23.5
    RHS1      c84       6
    RHS1      c85       29.5
    RHS1      c86       6
    RHS1      c87       17.5
    RHS1      c88       14.5
    RHS1      c89       12
    RHS1      c90       14.5
    RHS1      c91       -11
    RHS1      c92       8
    RHS1      c93       -3
    RHS1      c94       16.5
    RHS1      c95       -5
    RHS1      c96       10
    RHS1      c97       -6.5
    RHS1      c98       10
    RHS1      c99       -13
    RHS1      c100      3.5
    RHS1      c101      -30.5
    RHS1      c102      3.5
    RHS1      c103      -30
    RHS1      c104      14
    RHS1      c105      43.5
    RHS1      c106      9.5
    RHS1      c107      38.5
    RHS1      c108      8
    RHS1      c109      41
    RHS1      c110      12.5
    RHS1      c111      40.5
    RHS1      c112      6
    RHS1      c113      43.5
    RHS1      c114      6
    RHS1      c115      37.5
    RHS1      c116      14.5
    RHS1      c117      -1
    RHS1      c118      14.5
    RHS1      c119      -31
    RHS1      c120      8
    RHS1      c121      -23
    RHS1      c122      16.5
    RHS1      c123      -25
    RHS1      c124      10
    RHS1      c125      -26.5
    RHS1      c126      10
    RHS1      c127      -3
    RHS1      c128      3.5
    RHS1      c129      -20.5
    RHS1      c130      3.5
    RHS1      c131      -20
    RHS1      c132      14
    RHS1      c134      10.5
    RHS1      c135      28.5
    RHS1      c136      8
    RHS1      c137      31
    RHS1      c138      12.5
    RHS1      c139      30.5
    RHS1      c140      6
    RHS1      c141      36.5
    RHS1      c142      6
    RHS1      c143      27.5
    RHS1      c144      14.5
    RHS1      c145      5
    RHS1      c146      14.5
    RHS1      c147      -21
    RHS1      c148      8
    RHS1      c149      -13
    RHS1      c150      16.5
    RHS1      c151      -15
    RHS1      c152      10
    RHS1      c153      -16.5
    RHS1      c154      10
    RHS1      c155      5
    RHS1      c156      3.5
    RHS1      c157      -4.5
    RHS1      c158      3.5
    RHS1      c159      -4
    RHS1      c160      14
    RHS1      c161      8
    RHS1      c162      10.5
    RHS1      c163      -0.5
    RHS1      c164      9.5
    RHS1      c165      16
    RHS1      c166      12.5
    RHS1      c167      22.5
    RHS1      c168      6
    RHS1      c169      28.5
    RHS1      c170      6
    RHS1      c171      11.5
    RHS1      c172      14.5
    RHS1      c173      13
    RHS1      c174      14.5
    RHS1      c175      -5
    RHS1      c176      8
    RHS1      c177      -1
    RHS1      c178      16.5
    RHS1      c179      -2
    RHS1      c180      10
    RHS1      c181      -1.5
    RHS1      c182      10
    RHS1      c183      1
    RHS1      c184      3.5
    RHS1      c185      -8.5
    RHS1      c186      3.5
    RHS1      c187      -8
    RHS1      c188      14
    RHS1      c189      4
    RHS1      c190      10.5
    RHS1      c191      -4.5
    RHS1      c192      9.5
    RHS1      c193      -7.5
    RHS1      c194      8
    RHS1      c195      26.5
    RHS1      c196      6
    RHS1      c197      32.5
    RHS1      c198      6
    RHS1      c199      15.5
    RHS1      c200      14.5
    RHS1      c201      9
    RHS1      c202      14.5
    RHS1      c203      -9
    RHS1      c204      8
    RHS1      c205      -5
    RHS1      c206      16.5
    RHS1      c207      -6
    RHS1      c208      10
    RHS1      c209      -5.5
    RHS1      c210      10
    RHS1      c211      -5
    RHS1      c212      3.5
    RHS1      c213      -15.5
    RHS1      c214      3.5
    RHS1      c215      -15
    RHS1      c216      14
    RHS1      c217      -2
    RHS1      c218      10.5
    RHS1      c219      -11.5
    RHS1      c220      9.5
    RHS1      c221      -13.5
    RHS1      c222      8
    RHS1      c223      -12
    RHS1      c224      12.5
    RHS1      c225      38.5
    RHS1      c226      6
    RHS1      c227      22.5
    RHS1      c228      14.5
    RHS1      c229      3
    RHS1      c230      14.5
    RHS1      c231      -16
    RHS1      c232      8
    RHS1      c233      -11
    RHS1      c234      16.5
    RHS1      c235      -12
    RHS1      c236      10
    RHS1      c237      -11.5
    RHS1      c238      10
    RHS1      c239      -16
    RHS1      c240      3.5
    RHS1      c241      -33.5
    RHS1      c242      3.5
    RHS1      c243      -33
    RHS1      c244      14
    RHS1      c245      -11
    RHS1      c246      10.5
    RHS1      c247      -29.5
    RHS1      c248      9.5
    RHS1      c249      -30.5
    RHS1      c250      8
    RHS1      c251      -30
    RHS1      c252      12.5
    RHS1      c253      -16.5
    RHS1      c254      6
    RHS1      c255      40.5
    RHS1      c256      14.5
    RHS1      c257      -6
    RHS1      c258      14.5
    RHS1      c259      -34
    RHS1      c260      8
    RHS1      c261      -26
    RHS1      c262      16.5
    RHS1      c263      -28
    RHS1      c264      10
    RHS1      c265      -29.5
    RHS1      c266      10
    RHS1      c267      9
    RHS1      c268      3.5
    RHS1      c269      -3.5
    RHS1      c270      3.5
    RHS1      c271      -3
    RHS1      c272      14
    RHS1      c273      12
    RHS1      c274      10.5
    RHS1      c275      0.5
    RHS1      c276      9.5
    RHS1      c277      -0.5
    RHS1      c278      8
    RHS1      c280      12.5
    RHS1      c281      8.5
    RHS1      c282      6
    RHS1      c283      14.5
    RHS1      c284      6
    RHS1      c285      17
    RHS1      c286      14.5
    RHS1      c287      -4
    RHS1      c288      8
    RHS1      c289      3
    RHS1      c290      16.5
    RHS1      c291      2
    RHS1      c292      10
    RHS1      c293      0.5
    RHS1      c294      10
    RHS1      c295      -17
    RHS1      c296      3.5
    RHS1      c297      -26.5
    RHS1      c298      3.5
    RHS1      c299      36
    RHS1      c300      14
    RHS1      c301      48
    RHS1      c302      10.5
    RHS1      c303      39.5
    RHS1      c304      9.5
    RHS1      c305      36.5
    RHS1      c306      8
    RHS1      c307      38
    RHS1      c308      12.5
    RHS1      c309      44.5
    RHS1      c310      6
    RHS1      c311      50.5
    RHS1      c312      6
    RHS1      c313      33.5
    RHS1      c314      14.5
    RHS1      c315      35
    RHS1      c316      8
    RHS1      c317      39
    RHS1      c318      16.5
    RHS1      c319      38
    RHS1      c320      10
    RHS1      c321      38.5
    RHS1      c322      10
    RHS1      c323      6
    RHS1      c324      3.5
    RHS1      c325      -3.5
    RHS1      c326      3.5
    RHS1      c327      13
    RHS1      c328      14
    RHS1      c329      25
    RHS1      c330      10.5
    RHS1      c331      16.5
    RHS1      c332      9.5
    RHS1      c333      13.5
    RHS1      c334      8
    RHS1      c335      15
    RHS1      c336      12.5
    RHS1      c337      21.5
    RHS1      c338      6
    RHS1      c339      27.5
    RHS1      c340      6
    RHS1      c341      10.5
    RHS1      c342      14.5
    RHS1      c343      14
    RHS1      c344      14.5
    RHS1      c345      16
    RHS1      c346      16.5
    RHS1      c347      15
    RHS1      c348      10
    RHS1      c349      15.5
    RHS1      c350      10
    RHS1      c351      2
    RHS1      c352      3.5
    RHS1      c353      -7.5
    RHS1      c354      3.5
    RHS1      c355      17
    RHS1      c356      14
    RHS1      c357      29
    RHS1      c358      10.5
    RHS1      c359      20.5
    RHS1      c360      9.5
    RHS1      c361      17.5
    RHS1      c362      8
    RHS1      c363      19
    RHS1      c364      12.5
    RHS1      c365      25.5
    RHS1      c366      6
    RHS1      c367      31.5
    RHS1      c368      6
    RHS1      c369      14.5
    RHS1      c370      14.5
    RHS1      c371      10
    RHS1      c372      14.5
    RHS1      c373      -8
    RHS1      c374      8
    RHS1      c375      19
    RHS1      c376      10
    RHS1      c377      19.5
    RHS1      c378      10
    RHS1      c379      3
    RHS1      c380      3.5
    RHS1      c381      -6.5
    RHS1      c382      3.5
    RHS1      c383      16
    RHS1      c384      14
    RHS1      c385      28
    RHS1      c386      10.5
    RHS1      c387      19.5
    RHS1      c388      9.5
    RHS1      c389      16.5
    RHS1      c390      8
    RHS1      c391      18
    RHS1      c392      12.5
    RHS1      c393      24.5
    RHS1      c394      6
    RHS1      c395      30.5
    RHS1      c396      6
    RHS1      c397      13.5
    RHS1      c398      14.5
    RHS1      c399      11
    RHS1      c400      14.5
    RHS1      c401      -7
    RHS1      c402      8
    RHS1      c403      -3
    RHS1      c404      16.5
    RHS1      c405      18.5
    RHS1      c406      10
    RHS1      c408      3.5
    RHS1      c409      -9.5
    RHS1      c410      3.5
    RHS1      c411      19
    RHS1      c412      14
    RHS1      c413      31
    RHS1      c414      10.5
    RHS1      c415      22.5
    RHS1      c416      9.5
    RHS1      c417      19.5
    RHS1      c418      8
    RHS1      c419      21
    RHS1      c420      12.5
    RHS1      c421      27.5
    RHS1      c422      6
    RHS1      c423      33.5
    RHS1      c424      6
    RHS1      c425      16.5
    RHS1      c426      14.5
    RHS1      c427      8
    RHS1      c428      14.5
    RHS1      c429      -10
    RHS1      c430      8
    RHS1      c431      -6
    RHS1      c432      16.5
    RHS1      c433      -7
    RHS1      c434      10
    RHS1      c435      84
    RHS1      c436      9993.5
    RHS1      c437      79
    RHS1      c438      9993.5
    RHS1      c439      59
    RHS1      c440      9993.5
    RHS1      c441      69
    RHS1      c442      9993.5
    RHS1      c443      85
    RHS1      c444      9993.5
    RHS1      c445      81
    RHS1      c446      9993.5
    RHS1      c447      74
    RHS1      c448      9993.5
    RHS1      c449      56
    RHS1      c450      9993.5
    RHS1      c451      86
    RHS1      c452      9993.5
    RHS1      c453      63
    RHS1      c454      9993.5
    RHS1      c455      86
    RHS1      c456      9993.5
    RHS1      c457      82
    RHS1      c458      9993.5
    RHS1      c459      83
    RHS1      c460      9993.5
    RHS1      c461      80
    RHS1      c462      9993.5
    RHS1      c463      113.5
    RHS1      c464      9995.5
    RHS1      c465      79.5
    RHS1      c466      9995.5
    RHS1      c467      60.5
    RHS1      c468      9995.5
    RHS1      c469      69.5
    RHS1      c470      9995.5
    RHS1      c471      86.5
    RHS1      c472      9995.5
    RHS1      c473      82.5
    RHS1      c474      9995.5
    RHS1      c475      75.5
    RHS1      c476      9995.5
    RHS1      c477      57.5
    RHS1      c478      9995.5
    RHS1      c479      86.5
    RHS1      c480      9995.5
    RHS1      c481      64.5
    RHS1      c482      9995.5
    RHS1      c483      86.5
    RHS1      c484      9995.5
    RHS1      c485      83.5
    RHS1      c486      9995.5
    RHS1      c487      84.5
    RHS1      c488      9995.5
    RHS1      c489      81.5
    RHS1      c490      9995.5
    RHS1      c491      105
    RHS1      c492      9993
    RHS1      c493      100
    RHS1      c494      9993
    RHS1      c495      60
    RHS1      c496      9993
    RHS1      c497      65
    RHS1      c498      9993
    RHS1      c499      83
    RHS1      c500      9993
    RHS1      c501      78
    RHS1      c502      9993
    RHS1      c503      75
    RHS1      c504      9993
    RHS1      c505      57
    RHS1      c506      9993
    RHS1      c507      82
    RHS1      c508      9993
    RHS1      c509      116
    RHS1      c510      9993
    RHS1      c511      98
    RHS1      c512      9993
    RHS1      c513      98
    RHS1      c514      9993
    RHS1      c515      98
    RHS1      c516      9993
    RHS1      c517      103
    RHS1      c518      9993
    RHS1      c519      94
    RHS1      c520      9989.5
    RHS1      c521      92
    RHS1      c522      9989.5
    RHS1      c523      97
    RHS1      c524      9989.5
    RHS1      c525      57
    RHS1      c526      9989.5
    RHS1      c527      75
    RHS1      c528      9989.5
    RHS1      c529      70
    RHS1      c530      9989.5
    RHS1      c531      70
    RHS1      c532      9989.5
    RHS1      c533      55
    RHS1      c534      9989.5
    RHS1      c535      74
    RHS1      c536      9989.5
    RHS1      c537      101
    RHS1      c538      9989.5
    RHS1      c539      90
    RHS1      c540      9989.5
    RHS1      c541      90
    RHS1      c542      9989.5
    RHS1      c543      90
    RHS1      c544      9989.5
    RHS1      c545      95
    RHS1      c546      9989.5
    RHS1      c547      95.5
    RHS1      c548      9990.5
    RHS1      c549      93.5
    RHS1      c550      9990.5
    RHS1      c551      98.5
    RHS1      c552      9990.5
    RHS1      c553      110.5
    RHS1      c554      9990.5
    RHS1      c555      76.5
    RHS1      c556      9990.5
    RHS1      c557      71.5
    RHS1      c558      9990.5
    RHS1      c559      71.5
    RHS1      c560      9990.5
    RHS1      c561      53.5
    RHS1      c562      9990.5
    RHS1      c563      75.5
    RHS1      c564      9990.5
    RHS1      c565      106.5
    RHS1      c566      9990.5
    RHS1      c567      91.5
    RHS1      c568      9990.5
    RHS1      c569      91.5
    RHS1      c570      9990.5
    RHS1      c571      91.5
    RHS1      c572      9990.5
    RHS1      c573      96.5
    RHS1      c574      9990.5
    RHS1      c575      116.5
    RHS1      c576      9995
    RHS1      c577      106.5
    RHS1      c578      9995
    RHS1      c579      111.5
    RHS1      c580      9995
    RHS1      c581      131.5
    RHS1      c582      9995
    RHS1      c583      121.5
    RHS1      c584      9995
    RHS1      c585      83.5
    RHS1      c586      9995
    RHS1      c587      76.5
    RHS1      c588      9995
    RHS1      c589      58.5
    RHS1      c590      9995
    RHS1      c591      88.5
    RHS1      c592      9995
    RHS1      c593      127.5
    RHS1      c594      9995
    RHS1      c595      104.5
    RHS1      c596      9995
    RHS1      c597      108.5
    RHS1      c598      9995
    RHS1      c599      107.5
    RHS1      c600      9995
    RHS1      c601      110.5
    RHS1      c602      9995
    RHS1      c603      114
    RHS1      c604      9987.5
    RHS1      c605      104
    RHS1      c606      9987.5
    RHS1      c607      109
    RHS1      c608      9987.5
    RHS1      c609      129
    RHS1      c610      9987.5
    RHS1      c611      119
    RHS1      c612      9987.5
    RHS1      c613      103
    RHS1      c614      9987.5
    RHS1      c615      74
    RHS1      c616      9987.5
    RHS1      c617      56
    RHS1      c618      9987.5
    RHS1      c619      86
    RHS1      c620      9987.5
    RHS1      c621      125
    RHS1      c622      9987.5
    RHS1      c623      102
    RHS1      c624      9987.5
    RHS1      c625      106
    RHS1      c626      9987.5
    RHS1      c627      105
    RHS1      c628      9987.5
    RHS1      c629      108
    RHS1      c630      9987.5
    RHS1      c631      112.5
    RHS1      c632      9994
    RHS1      c633      103.5
    RHS1      c634      9994
    RHS1      c635      108.5
    RHS1      c636      9994
    RHS1      c637      127.5
    RHS1      c638      9994
    RHS1      c639      118.5
    RHS1      c640      9994
    RHS1      c641      101.5
    RHS1      c642      9994
    RHS1      c643      105.5
    RHS1      c644      9994
    RHS1      c645      56.5
    RHS1      c646      9994
    RHS1      c647      85.5
    RHS1      c648      9994
    RHS1      c649      123.5
    RHS1      c650      9994
    RHS1      c651      101.5
    RHS1      c652      9994
    RHS1      c653      104.5
    RHS1      c654      9994
    RHS1      c655      103.5
    RHS1      c656      9994
    RHS1      c657      106.5
    RHS1      c658      9994
    RHS1      c659      93.5
    RHS1      c660      9994
    RHS1      c661      91.5
    RHS1      c662      9994
    RHS1      c663      96.5
    RHS1      c664      9994
    RHS1      c665      106.5
    RHS1      c666      9994
    RHS1      c667      106.5
    RHS1      c668      9994
    RHS1      c669      88.5
    RHS1      c670      9994
    RHS1      c671      93.5
    RHS1      c672      9994
    RHS1      c673      93.5
    RHS1      c674      9994
    RHS1      c675      73.5
    RHS1      c676      9994
    RHS1      c677      102.5
    RHS1      c678      9994
    RHS1      c679      89.5
    RHS1      c680      9994
    RHS1      c681      89.5
    RHS1      c682      9994
    RHS1      c683      89.5
    RHS1      c684      9994
    RHS1      c685      94.5
    RHS1      c686      9994
    RHS1      c687      111.5
    RHS1      c688      9984.5
    RHS1      c689      104.5
    RHS1      c690      9984.5
    RHS1      c691      109.5
    RHS1      c692      9984.5
    RHS1      c693      126.5
    RHS1      c694      9984.5
    RHS1      c695      119.5
    RHS1      c696      9984.5
    RHS1      c697      101.5
    RHS1      c698      9984.5
    RHS1      c699      106.5
    RHS1      c700      9984.5
    RHS1      c701      111.5
    RHS1      c702      9984.5
    RHS1      c703      129.5
    RHS1      c704      9984.5
    RHS1      c705      122.5
    RHS1      c706      9984.5
    RHS1      c707      102.5
    RHS1      c708      9984.5
    RHS1      c709      103.5
    RHS1      c710      9984.5
    RHS1      c711      102.5
    RHS1      c712      9984.5
    RHS1      c713      107.5
    RHS1      c714      9984.5
    RHS1      c715      111
    RHS1      c716      9994.5
    RHS1      c717      101
    RHS1      c718      9994.5
    RHS1      c719      76
    RHS1      c720      9994.5
    RHS1      c721      56
    RHS1      c722      9994.5
    RHS1      c723      66
    RHS1      c724      9994.5
    RHS1      c725      82
    RHS1      c726      9994.5
    RHS1      c727      78
    RHS1      c728      9994.5
    RHS1      c729      71
    RHS1      c730      9994.5
    RHS1      c731      53
    RHS1      c732      9994.5
    RHS1      c733      83
    RHS1      c734      9994.5
    RHS1      c735      83
    RHS1      c736      9994.5
    RHS1      c737      79
    RHS1      c738      9994.5
    RHS1      c739      80
    RHS1      c740      9994.5
    RHS1      c741      77
    RHS1      c742      9994.5
    RHS1      c743      116
    RHS1      c744      9995
    RHS1      c745      106
    RHS1      c746      9995
    RHS1      c747      81
    RHS1      c748      9995
    RHS1      c749      61
    RHS1      c750      9995
    RHS1      c751      71
    RHS1      c752      9995
    RHS1      c753      87
    RHS1      c754      9995
    RHS1      c755      83
    RHS1      c756      9995
    RHS1      c757      76
    RHS1      c758      9995
    RHS1      c759      58
    RHS1      c760      9995
    RHS1      c761      88
    RHS1      c762      9995
    RHS1      c763      127
    RHS1      c764      9995
    RHS1      c765      84
    RHS1      c766      9995
    RHS1      c767      85
    RHS1      c768      9995
    RHS1      c769      82
    RHS1      c770      9995
    RHS1      c771      116
    RHS1      c772      9993.5
    RHS1      c773      106
    RHS1      c774      9993.5
    RHS1      c775      81
    RHS1      c776      9993.5
    RHS1      c777      61
    RHS1      c778      9993.5
    RHS1      c779      71
    RHS1      c780      9993.5
    RHS1      c781      87
    RHS1      c782      9993.5
    RHS1      c783      83
    RHS1      c784      9993.5
    RHS1      c785      76
    RHS1      c786      9993.5
    RHS1      c787      58
    RHS1      c788      9993.5
    RHS1      c789      88
    RHS1      c790      9993.5
    RHS1      c791      127
    RHS1      c792      9993.5
    RHS1      c793      104
    RHS1      c794      9993.5
    RHS1      c795      85
    RHS1      c796      9993.5
    RHS1      c797      82
    RHS1      c798      9993.5
    RHS1      c799      116
    RHS1      c800      9989
    RHS1      c801      106
    RHS1      c802      9989
    RHS1      c803      81
    RHS1      c804      9989
    RHS1      c805      61
    RHS1      c806      9989
    RHS1      c807      71
    RHS1      c808      9989
    RHS1      c809      87
    RHS1      c810      9989
    RHS1      c811      83
    RHS1      c812      9989
    RHS1      c813      76
    RHS1      c814      9989
    RHS1      c815      58
    RHS1      c816      9989
    RHS1      c817      88
    RHS1      c818      9989
    RHS1      c819      127
    RHS1      c820      9989
    RHS1      c821      104
    RHS1      c822      9989
    RHS1      c823      108
    RHS1      c824      9989
    RHS1      c825      82
    RHS1      c826      9989
    RHS1      c827      113.5
    RHS1      c828      9986
    RHS1      c829      103.5
    RHS1      c830      9986
    RHS1      c831      78.5
    RHS1      c832      9986
    RHS1      c833      58.5
    RHS1      c834      9986
    RHS1      c835      68.5
    RHS1      c836      9986
    RHS1      c837      84.5
    RHS1      c838      9986
    RHS1      c839      80.5
    RHS1      c840      9986
    RHS1      c841      73.5
    RHS1      c842      9986
    RHS1      c843      55.5
    RHS1      c844      9986
    RHS1      c845      85.5
    RHS1      c846      9986
    RHS1      c847      124.5
    RHS1      c848      9986
    RHS1      c849      101.5
    RHS1      c850      9986
    RHS1      c851      105.5
    RHS1      c852      9986
    RHS1      c853      104.5
    RHS1      c854      9986
    RHS1      c855      10.5
    RHS1      c856      -9990
    RHS1      c857      11
    RHS1      c858      -9979.5
    RHS1      c859      23
    RHS1      c860      -9983
    RHS1      c861      14.5
    RHS1      c862      -9984
    RHS1      c863      11.5
    RHS1      c864      -9985.5
    RHS1      c865      13
    RHS1      c866      -9981
    RHS1      c867      19.5
    RHS1      c868      -9987.5
    RHS1      c869      25.5
    RHS1      c870      -9987.5
    RHS1      c871      8.5
    RHS1      c872      -9979
    RHS1      c873      28
    RHS1      c874      -9979
    RHS1      c875      10
    RHS1      c876      -9985.5
    RHS1      c877      14
    RHS1      c878      -9977
    RHS1      c879      13
    RHS1      c880      -9983.5
    RHS1      c881      13.5
    RHS1      c882      -9983.5
    RHS1      c883      -179.5
    RHS1      c884      -9992
    RHS1      c885      10.5
    RHS1      c886      -9981.5
    RHS1      c887      21.5
    RHS1      c888      -9985
    RHS1      c889      14
    RHS1      c890      -9986
    RHS1      c891      10
    RHS1      c892      -9987.5
    RHS1      c893      11.5
    RHS1      c894      -9983
    RHS1      c895      18
    RHS1      c896      -9989.5
    RHS1      c897      24
    RHS1      c898      -9989.5
    RHS1      c899      8
    RHS1      c900      -9981
    RHS1      c901      26.5
    RHS1      c902      -9981
    RHS1      c903      9.5
    RHS1      c904      -9987.5
    RHS1      c905      12.5
    RHS1      c906      -9979
    RHS1      c907      11.5
    RHS1      c908      -9985.5
    RHS1      c909      12
    RHS1      c910      -9985.5
    RHS1      c911      -171
    RHS1      c912      -9989.5
    RHS1      c913      -185.5
    RHS1      c914      -9989.5
    RHS1      c915      22
    RHS1      c916      -9982.5
    RHS1      c917      18.5
    RHS1      c918      -9983.5
    RHS1      c919      13.5
    RHS1      c920      -9985
    RHS1      c921      16
    RHS1      c922      -9980.5
    RHS1      c923      18.5
    RHS1      c924      -9987
    RHS1      c925      24.5
    RHS1      c926      -9987
    RHS1      c927      12.5
    RHS1      c928      -9978.5
    RHS1      c929      -163
    RHS1      c930      -9978.5
    RHS1      c931      -186
    RHS1      c932      -9985
    RHS1      c933      -178
    RHS1      c934      -9976.5
    RHS1      c935      -180
    RHS1      c936      -9983
    RHS1      c937      -181.5
    RHS1      c938      -9983
    RHS1      c939      -160
    RHS1      c940      -9986
    RHS1      c941      -177.5
    RHS1      c942      -9986
    RHS1      c943      -177
    RHS1      c944      -9975.5
    RHS1      c945      26.5
    RHS1      c946      -9980
    RHS1      c947      21.5
    RHS1      c948      -9981.5
    RHS1      c949      24
    RHS1      c950      -9977
    RHS1      c951      23.5
    RHS1      c952      -9983.5
    RHS1      c953      26.5
    RHS1      c954      -9983.5
    RHS1      c955      20.5
    RHS1      c956      -9975
    RHS1      c957      -148
    RHS1      c958      -9975
    RHS1      c959      -178
    RHS1      c960      -9981.5
    RHS1      c961      -170
    RHS1      c962      -9973
    RHS1      c963      -172
    RHS1      c964      -9979.5
    RHS1      c965      -173.5
    RHS1      c966      -9979.5
    RHS1      c967      -161.5
    RHS1      c968      -9987
    RHS1      c969      -179
    RHS1      c970      -9987
    RHS1      c971      -178.5
    RHS1      c972      -9976.5
    RHS1      c973      -158.5
    RHS1      c974      -9980
    RHS1      c975      20
    RHS1      c976      -9982.5
    RHS1      c977      22.5
    RHS1      c978      -9978
    RHS1      c979      22
    RHS1      c980      -9984.5
    RHS1      c981      28
    RHS1      c982      -9984.5
    RHS1      c983      19
    RHS1      c984      -9976
    RHS1      c985      -153.5
    RHS1      c986      -9976
    RHS1      c987      -179.5
    RHS1      c988      -9982.5
    RHS1      c989      -171.5
    RHS1      c990      -9974
    RHS1      c991      -173.5
    RHS1      c992      -9980.5
    RHS1      c993      -175
    RHS1      c994      -9980.5
    RHS1      c995      -182.5
    RHS1      c996      -9991.5
    RHS1      c997      -192
    RHS1      c998      -9991.5
    RHS1      c999      -191.5
    RHS1      c1000     -9981
    RHS1      c1001     -179.5
    RHS1      c1002     -9984.5
    RHS1      c1003     -188
    RHS1      c1004     -9985.5
    RHS1      c1005     10.5
    RHS1      c1006     -9982.5
    RHS1      c1007     17
    RHS1      c1008     -9989
    RHS1      c1009     23
    RHS1      c1010     -9989
    RHS1      c1011     6
    RHS1      c1012     -9980.5
    RHS1      c1013     -174.5
    RHS1      c1014     -9980.5
    RHS1      c1015     -192.5
    RHS1      c1016     -9987
    RHS1      c1017     -188.5
    RHS1      c1018     -9978.5
    RHS1      c1019     -189.5
    RHS1      c1020     -9985
    RHS1      c1021     -189
    RHS1      c1022     -9985
    RHS1      c1023     -180
    RHS1      c1024     -9984
    RHS1      c1025     -189.5
    RHS1      c1026     -9984
    RHS1      c1027     -189
    RHS1      c1028     -9973.5
    RHS1      c1029     -177
    RHS1      c1030     -9977
    RHS1      c1031     -185.5
    RHS1      c1032     -9978
    RHS1      c1033     -188.5
    RHS1      c1034     -9979.5
    RHS1      c1035     19.5
    RHS1      c1036     -9981.5
    RHS1      c1037     25.5
    RHS1      c1038     -9981.5
    RHS1      c1039     8.5
    RHS1      c1040     -9973
    RHS1      c1041     -172
    RHS1      c1042     -9973
    RHS1      c1043     -190
    RHS1      c1044     -9979.5
    RHS1      c1045     -186
    RHS1      c1046     -9971
    RHS1      c1047     -187
    RHS1      c1048     -9977.5
    RHS1      c1049     -186.5
    RHS1      c1050     -9977.5
    RHS1      c1051     -178.5
    RHS1      c1052     -9990.5
    RHS1      c1053     -189
    RHS1      c1054     -9990.5
    RHS1      c1055     -188.5
    RHS1      c1056     -9980
    RHS1      c1057     -175.5
    RHS1      c1058     -9983.5
    RHS1      c1059     -185
    RHS1      c1060     -9984.5
    RHS1      c1061     -187
    RHS1      c1062     -9986
    RHS1      c1063     -185.5
    RHS1      c1064     -9981.5
    RHS1      c1065     25
    RHS1      c1066     -9988
    RHS1      c1067     9
    RHS1      c1068     -9979.5
    RHS1      c1069     -170.5
    RHS1      c1070     -9979.5
    RHS1      c1071     -189.5
    RHS1      c1072     -9986
    RHS1      c1073     -184.5
    RHS1      c1074     -9977.5
    RHS1      c1075     -185.5
    RHS1      c1076     -9984
    RHS1      c1077     -185
    RHS1      c1078     -9984
    RHS1      c1079     -159.5
    RHS1      c1080     -9990.5
    RHS1      c1081     -177
    RHS1      c1082     -9990.5
    RHS1      c1083     -176.5
    RHS1      c1084     -9980
    RHS1      c1085     -154.5
    RHS1      c1086     -9983.5
    RHS1      c1087     -173
    RHS1      c1088     -9984.5
    RHS1      c1089     -174
    RHS1      c1090     -9986
    RHS1      c1091     -173.5
    RHS1      c1092     -9981.5
    RHS1      c1093     -160
    RHS1      c1094     -9988
    RHS1      c1095     21
    RHS1      c1096     -9979.5
    RHS1      c1097     -149.5
    RHS1      c1098     -9979.5
    RHS1      c1099     -177.5
    RHS1      c1100     -9986
    RHS1      c1101     -169.5
    RHS1      c1102     -9977.5
    RHS1      c1103     -171.5
    RHS1      c1104     -9984
    RHS1      c1105     -173
    RHS1      c1106     -9984
    RHS1      c1107     -177.5
    RHS1      c1108     -9981
    RHS1      c1109     -190
    RHS1      c1110     -9981
    RHS1      c1111     -189.5
    RHS1      c1112     -9970.5
    RHS1      c1113     -174.5
    RHS1      c1114     -9974
    RHS1      c1115     -186
    RHS1      c1116     -9975
    RHS1      c1117     -187
    RHS1      c1118     -9976.5
    RHS1      c1119     -186.5
    RHS1      c1120     -9972
    RHS1      c1121     -178
    RHS1      c1122     -9978.5
    RHS1      c1123     -172
    RHS1      c1124     -9978.5
    RHS1      c1125     -169.5
    RHS1      c1126     -9970
    RHS1      c1127     -190.5
    RHS1      c1128     -9976.5
    RHS1      c1129     -183.5
    RHS1      c1130     -9968
    RHS1      c1131     -184.5
    RHS1      c1132     -9974.5
    RHS1      c1133     -186
    RHS1      c1134     -9974.5
    RHS1      c1135     -177
    RHS1      c1136     -9991
    RHS1      c1137     -186.5
    RHS1      c1138     -9991
    RHS1      c1139     14
    RHS1      c1140     -9980.5
    RHS1      c1141     26
    RHS1      c1142     -9984
    RHS1      c1143     17.5
    RHS1      c1144     -9985
    RHS1      c1145     14.5
    RHS1      c1146     -9986.5
    RHS1      c1147     16
    RHS1      c1148     -9982
    RHS1      c1149     22.5
    RHS1      c1150     -9988.5
    RHS1      c1151     28.5
    RHS1      c1152     -9988.5
    RHS1      c1153     11.5
    RHS1      c1154     -9980
    RHS1      c1155     13
    RHS1      c1156     -9986.5
    RHS1      c1157     17
    RHS1      c1158     -9978
    RHS1      c1159     16
    RHS1      c1160     -9984.5
    RHS1      c1161     16.5
    RHS1      c1162     -9984.5
    RHS1      c1163     -182
    RHS1      c1164     -9991.5
    RHS1      c1165     -191.5
    RHS1      c1166     -9991.5
    RHS1      c1167     9
    RHS1      c1168     -9981
    RHS1      c1169     21
    RHS1      c1170     -9984.5
    RHS1      c1171     12.5
    RHS1      c1172     -9985.5
    RHS1      c1173     9.5
    RHS1      c1174     -9987
    RHS1      c1175     11
    RHS1      c1176     -9982.5
    RHS1      c1177     17.5
    RHS1      c1178     -9989
    RHS1      c1179     23.5
    RHS1      c1180     -9989
    RHS1      c1181     6.5
    RHS1      c1182     -9980.5
    RHS1      c1183     -174
    RHS1      c1184     -9980.5
    RHS1      c1185     12
    RHS1      c1186     -9978.5
    RHS1      c1187     11
    RHS1      c1188     -9985
    RHS1      c1189     11.5
    RHS1      c1190     -9985
    RHS1      c1191     -182
    RHS1      c1192     -9990
    RHS1      c1193     -191.5
    RHS1      c1194     -9990
    RHS1      c1195     9
    RHS1      c1196     -9979.5
    RHS1      c1197     21
    RHS1      c1198     -9983
    RHS1      c1199     12.5
    RHS1      c1200     -9984
    RHS1      c1201     9.5
    RHS1      c1202     -9985.5
    RHS1      c1203     11
    RHS1      c1204     -9981
    RHS1      c1205     17.5
    RHS1      c1206     -9987.5
    RHS1      c1207     23.5
    RHS1      c1208     -9987.5
    RHS1      c1209     6.5
    RHS1      c1210     -9979
    RHS1      c1211     -174
    RHS1      c1212     -9979
    RHS1      c1213     -192
    RHS1      c1214     -9985.5
    RHS1      c1215     11
    RHS1      c1216     -9983.5
    RHS1      c1217     11.5
    RHS1      c1218     -9983.5
    RHS1      c1219     -182
    RHS1      c1220     -9985.5
    RHS1      c1221     -191.5
    RHS1      c1222     -9985.5
    RHS1      c1223     9
    RHS1      c1224     -9975
    RHS1      c1225     21
    RHS1      c1226     -9978.5
    RHS1      c1227     12.5
    RHS1      c1228     -9979.5
    RHS1      c1229     9.5
    RHS1      c1230     -9981
    RHS1      c1231     11
    RHS1      c1232     -9976.5
    RHS1      c1233     17.5
    RHS1      c1234     -9983
    RHS1      c1235     23.5
    RHS1      c1236     -9983
    RHS1      c1237     6.5
    RHS1      c1238     -9974.5
    RHS1      c1239     -174
    RHS1      c1240     -9974.5
    RHS1      c1241     -192
    RHS1      c1242     -9981
    RHS1      c1243     -188
    RHS1      c1244     -9972.5
    RHS1      c1245     11.5
    RHS1      c1246     -9979
    RHS1      c1247     -179.5
    RHS1      c1248     -9982.5
    RHS1      c1249     -189
    RHS1      c1250     -9982.5
    RHS1      c1251     11.5
    RHS1      c1252     -9972
    RHS1      c1253     23.5
    RHS1      c1254     -9975.5
    RHS1      c1255     15
    RHS1      c1256     -9976.5
    RHS1      c1257     12
    RHS1      c1258     -9978
    RHS1      c1259     13.5
    RHS1      c1260     -9973.5
    RHS1      c1261     20
    RHS1      c1262     -9980
    RHS1      c1263     26
    RHS1      c1264     -9980
    RHS1      c1265     9
    RHS1      c1266     -9971.5
    RHS1      c1267     -171.5
    RHS1      c1268     -9971.5
    RHS1      c1269     -189.5
    RHS1      c1270     -9978
    RHS1      c1271     -185.5
    RHS1      c1272     -9969.5
    RHS1      c1273     -186.5
    RHS1      c1274     -9976
BOUNDS
 LO BND1      c[B0,0]   14
 UP BND1      c[B0,0]   94
 LO BND1      c[B0,1]   3.5
 UP BND1      c[B0,1]   9993.5
 LO BND1      c[B1,0]   4.5
 UP BND1      c[B1,0]   94.5
 LO BND1      c[B1,1]   3.5
 UP BND1      c[B1,1]   9995.5
 LO BND1      c[B2,0]   5
 UP BND1      c[B2,0]   90
 LO BND1      c[B2,1]   14
 UP BND1      c[B2,1]   9993
 LO BND1      c[B3,0]   17
 UP BND1      c[B3,0]   82
 LO BND1      c[B3,1]   10.5
 UP BND1      c[B3,1]   9989.5
 LO BND1      c[B4,0]   8.5
 UP BND1      c[B4,0]   83.5
 LO BND1      c[B4,1]   9.5
 UP BND1      c[B4,1]   9990.5
 LO BND1      c[B5,0]   5.5
 UP BND1      c[B5,0]   96.5
 LO BND1      c[B5,1]   8
 UP BND1      c[B5,1]   9995
 LO BND1      c[B6,0]   7
 UP BND1      c[B6,0]   94
 LO BND1      c[B6,1]   12.5
 UP BND1      c[B6,1]   9987.5
 LO BND1      c[B7,0]   13.5
 UP BND1      c[B7,0]   93.5
 LO BND1      c[B7,1]   6
 UP BND1      c[B7,1]   9994
 LO BND1      c[B8,0]   19.5
 UP BND1      c[B8,0]   81.5
 LO BND1      c[B8,1]   6
 UP BND1      c[B8,1]   9994
 LO BND1      c[B9,0]   2.5
 UP BND1      c[B9,0]   94.5
 LO BND1      c[B9,1]   14.5
 UP BND1      c[B9,1]   9984.5
 LO BND1      c[B10,0]  22
 UP BND1      c[B10,0]  91
 LO BND1      c[B10,1]  14.5
 UP BND1      c[B10,1]  9994.5
 LO BND1      c[B11,0]  4
 UP BND1      c[B11,0]  96
 LO BND1      c[B11,1]  8
 UP BND1      c[B11,1]  9995
 LO BND1      c[B12,0]  8
 UP BND1      c[B12,0]  96
 LO BND1      c[B12,1]  16.5
 UP BND1      c[B12,1]  9993.5
 LO BND1      c[B13,0]  7
 UP BND1      c[B13,0]  96
 LO BND1      c[B13,1]  10
 UP BND1      c[B13,1]  9989
 LO BND1      c[B14,0]  7.5
 UP BND1      c[B14,0]  93.5
 LO BND1      c[B14,1]  10
 UP BND1      c[B14,1]  9986
 LO BND1      h         22.5
 UP BND1      h         272
 BV BND1      delta[B0,B1]
 BV BND1      delta[B0,B2]
 BV BND1      delta[B0,B3]
 BV BND1      delta[B0,B4]
 BV BND1      delta[B0,B5]
 BV BND1      delta[B0,B6]
 BV BND1      delta[B0,B7]
 BV BND1      delta[B0,B8]
 BV BND1      delta[B0,B9]
 BV BND1      delta[B0,B10]
 BV BND1      delta[B0,B11]
 BV BND1      delta[B0,B12]
 BV BND1      delta[B0,B13]
 BV BND1      delta[B0,B14]
 BV BND1      delta[B1,B0]
 BV BND1      delta[B1,B2]
 BV BND1      delta[B1,B3]
 BV BND1      delta[B1,B4]
 BV BND1      delta[B1,B5]
 BV BND1      delta[B1,B6]
 BV BND1      delta[B1,B7]
 BV BND1      delta[B1,B8]
 BV BND1      delta[B1,B9]
 BV BND1      delta[B1,B10]
 BV BND1      delta[B1,B11]
 BV BND1      delta[B1,B12]
 BV BND1      delta[B1,B13]
 BV BND1      delta[B1,B14]
 BV BND1      delta[B2,B0]
 BV BND1      delta[B2,B1]
 BV BND1      delta[B2,B3]
 BV BND1      delta[B2,B4]
 BV BND1      delta[B2,B5]
 BV BND1      delta[B2,B6]
 BV BND1      delta[B2,B7]
 BV BND1      delta[B2,B8]
 BV BND1      delta[B2,B9]
 BV BND1      delta[B2,B10]
 BV BND1      delta[B2,B11]
 BV BND1      delta[B2,B12]
 BV BND1      delta[B2,B13]
 BV BND1      delta[B2,B14]
 BV BND1      delta[B3,B0]
 BV BND1      delta[B3,B1]
 BV BND1      delta[B3,B2]
 BV BND1      delta[B3,B4]
 BV BND1      delta[B3,B5]
 BV BND1      delta[B3,B6]
 BV BND1      delta[B3,B7]
 BV BND1      delta[B3,B8]
 BV BND1      delta[B3,B9]
 BV BND1      delta[B3,B10]
 BV BND1      delta[B3,B11]
 BV BND1      delta[B3,B12]
 BV BND1      delta[B3,B13]
 BV BND1      delta[B3,B14]
 BV BND1      delta[B4,B0]
 BV BND1      delta[B4,B1]
 BV BND1      delta[B4,B2]
 BV BND1      delta[B4,B3]
 BV BND1      delta[B4,B5]
 BV BND1      delta[B4,B6]
 BV BND1      delta[B4,B7]
 BV BND1      delta[B4,B8]
 BV BND1      delta[B4,B9]
 BV BND1      delta[B4,B10]
 BV BND1      delta[B4,B11]
 BV BND1      delta[B4,B12]
 BV BND1      delta[B4,B13]
 BV BND1      delta[B4,B14]
 BV BND1      delta[B5,B0]
 BV BND1      delta[B5,B1]
 BV BND1      delta[B5,B2]
 BV BND1      delta[B5,B3]
 BV BND1      delta[B5,B4]
 BV BND1      delta[B5,B6]
 BV BND1      delta[B5,B7]
 BV BND1      delta[B5,B8]
 BV BND1      delta[B5,B9]
 BV BND1      delta[B5,B10]
 BV BND1      delta[B5,B11]
 BV BND1      delta[B5,B12]
 BV BND1      delta[B5,B13]
 BV BND1      delta[B5,B14]
 BV BND1      delta[B6,B0]
 BV BND1      delta[B6,B1]
 BV BND1      delta[B6,B2]
 BV BND1      delta[B6,B3]
 BV BND1      delta[B6,B4]
 BV BND1      delta[B6,B5]
 BV BND1      delta[B6,B7]
 BV BND1      delta[B6,B8]
 BV BND1      delta[B6,B9]
 BV BND1      delta[B6,B10]
 BV BND1      delta[B6,B11]
 BV BND1      delta[B6,B12]
 BV BND1      delta[B6,B13]
 BV BND1      delta[B6,B14]
 BV BND1      delta[B7,B0]
 BV BND1      delta[B7,B1]
 BV BND1      delta[B7,B2]
 BV BND1      delta[B7,B3]
 BV BND1      delta[B7,B4]
 BV BND1      delta[B7,B5]
 BV BND1      delta[B7,B6]
 BV BND1      delta[B7,B8]
 BV BND1      delta[B7,B9]
 BV BND1      delta[B7,B10]
 BV BND1      delta[B7,B11]
 BV BND1      delta[B7,B12]
 BV BND1      delta[B7,B13]
 BV BND1      delta[B7,B14]
 BV BND1      delta[B8,B0]
 BV BND1      delta[B8,B1]
 BV BND1      delta[B8,B2]
 BV BND1      delta[B8,B3]
 BV BND1      delta[B8,B4]
 BV BND1      delta[B8,B5]
 BV BND1      delta[B8,B6]
 BV BND1      delta[B8,B7]
 BV BND1      delta[B8,B9]
 BV BND1      delta[B8,B10]
 BV BND1      delta[B8,B11]
 BV BND1      delta[B8,B12]
 BV BND1      delta[B8,B13]
 BV BND1      delta[B8,B14]
 BV BND1      delta[B9,B0]
 BV BND1      delta[B9,B1]
 BV BND1      delta[B9,B2]
 BV BND1      delta[B9,B3]
 BV BND1      delta[B9,B4]
 BV BND1      delta[B9,B5]
 BV BND1      delta[B9,B6]
 BV BND1      delta[B9,B7]
 BV BND1      delta[B9,B8]
 BV BND1      delta[B9,B10]
 BV BND1      delta[B9,B11]
 BV BND1      delta[B9,B12]
 BV BND1      delta[B9,B13]
 BV BND1      delta[B9,B14]
 BV BND1      delta[B10,B0]
 BV BND1      delta[B10,B1]
 BV BND1      delta[B10,B2]
 BV BND1      delta[B10,B3]
 BV BND1      delta[B10,B4]
 BV BND1      delta[B10,B5]
 BV BND1      delta[B10,B6]
 BV BND1      delta[B10,B7]
 BV BND1      delta[B10,B8]
 BV BND1      delta[B10,B9]
 BV BND1      delta[B10,B11]
 BV BND1      delta[B10,B12]
 BV BND1      delta[B10,B13]
 BV BND1      delta[B10,B14]
 BV BND1      delta[B11,B0]
 BV BND1      delta[B11,B1]
 BV BND1      delta[B11,B2]
 BV BND1      delta[B11,B3]
 BV BND1      delta[B11,B4]
 BV BND1      delta[B11,B5]
 BV BND1      delta[B11,B6]
 BV BND1      delta[B11,B7]
 BV BND1      delta[B11,B8]
 BV BND1      delta[B11,B9]
 BV BND1      delta[B11,B10]
 BV BND1      delta[B11,B12]
 BV BND1      delta[B11,B13]
 BV BND1      delta[B11,B14]
 BV BND1      delta[B12,B0]
 BV BND1      delta[B12,B1]
 BV BND1      delta[B12,B2]
 BV BND1      delta[B12,B3]
 BV BND1      delta[B12,B4]
 BV BND1      delta[B12,B5]
 BV BND1      delta[B12,B6]
 BV BND1      delta[B12,B7]
 BV BND1      delta[B12,B8]
 BV BND1      delta[B12,B9]
 BV BND1      delta[B12,B10]
 BV BND1      delta[B12,B11]
 BV BND1      delta[B12,B13]
 BV BND1      delta[B12,B14]
 BV BND1      delta[B13,B0]
 BV BND1      delta[B13,B1]
 BV BND1      delta[B13,B2]
 BV BND1      delta[B13,B3]
 BV BND1      delta[B13,B4]
 BV BND1      delta[B13,B5]
 BV BND1      delta[B13,B6]
 BV BND1      delta[B13,B7]
 BV BND1      delta[B13,B8]
 BV BND1      delta[B13,B9]
 BV BND1      delta[B13,B10]
 BV BND1      delta[B13,B11]
 BV BND1      delta[B13,B12]
 BV BND1      delta[B13,B14]
 BV BND1      delta[B14,B0]
 BV BND1      delta[B14,B1]
 BV BND1      delta[B14,B2]
 BV BND1      delta[B14,B3]
 BV BND1      delta[B14,B4]
 BV BND1      delta[B14,B5]
 BV BND1      delta[B14,B6]
 BV BND1      delta[B14,B7]
 BV BND1      delta[B14,B8]
 BV BND1      delta[B14,B9]
 BV BND1      delta[B14,B10]
 BV BND1      delta[B14,B11]
 BV BND1      delta[B14,B12]
 BV BND1      delta[B14,B13]
ENDATA
