\ Model NU-010-StripPacking-35-0
\ LP format - for model browsing. Use MPS format to capture full model detail.
\ Signature: 0x3cd494028577e313
Minimize
  h
Subject To
 Height[B0]: - c[B0,1] + h >= 5.5
 Height[B1]: - c[B1,1] + h >= 6.5
 Height[B2]: - c[B2,1] + h >= 5.5
 Height[B3]: - c[B3,1] + h >= 6.5
 Height[B4]: - c[B4,1] + h >= 12.5
 Height[B5]: - c[B5,1] + h >= 3
 Height[B6]: - c[B6,1] + h >= 11
 Height[B7]: - c[B7,1] + h >= 10
 Height[B8]: - c[B8,1] + h >= 10
 Height[B9]: - c[B9,1] + h >= 11.5
 Height[B10]: - c[B10,1] + h >= 11
 Height[B11]: - c[B11,1] + h >= 8
 Height[B12]: - c[B12,1] + h >= 9
 Height[B13]: - c[B13,1] + h >= 5
 Height[B14]: - c[B14,1] + h >= 4.5
 Height[B15]: - c[B15,1] + h >= 7
 Height[B16]: - c[B16,1] + h >= 4
 Height[B17]: - c[B17,1] + h >= 9.5
 Height[B18]: - c[B18,1] + h >= 6.5
 Height[B19]: - c[B19,1] + h >= 13
 Height[B20]: - c[B20,1] + h >= 6
 Height[B21]: - c[B21,1] + h >= 4
 Height[B22]: - c[B22,1] + h >= 7
 Height[B23]: - c[B23,1] + h >= 12
 Height[B24]: - c[B24,1] + h >= 8.5
 Height[B25]: - c[B25,1] + h >= 4.5
 Height[B26]: - c[B26,1] + h >= 4.5
 Height[B27]: - c[B27,1] + h >= 17.5
 Height[B28]: - c[B28,1] + h >= 3.5
 Height[B29]: - c[B29,1] + h >= 7.5
 Height[B30]: - c[B30,1] + h >= 18
 Height[B31]: - c[B31,1] + h >= 8.5
 Height[B32]: - c[B32,1] + h >= 4.5
 Height[B33]: - c[B33,1] + h >= 5
 Height[B34]: - c[B34,1] + h >= 7.5
 PM[B0,B1,0]: c[B0,0] - c[B1,0] + 100 delta[B0,B1,0] <= 87.5
 PM[B0,B1,1]: c[B0,1] - c[B1,1] + 10000 delta[B0,B1,1] <= 9988
 PM[B0,B2,0]: c[B0,0] - c[B2,0] + 100 delta[B0,B2,0] <= 92.5
 PM[B0,B2,1]: c[B0,1] - c[B2,1] + 10000 delta[B0,B2,1] <= 9980
 PM[B0,B3,0]: c[B0,0] - c[B3,0] + 100 delta[B0,B3,0] <= 87.5
 PM[B0,B3,1]: c[B0,1] - c[B3,1] + 10000 delta[B0,B3,1] <= 9985
 PM[B0,B4,0]: c[B0,0] - c[B4,0] + 100 delta[B0,B4,0] <= 92.5
 PM[B0,B4,1]: c[B0,1] - c[B4,1] + 10000 delta[B0,B4,1] <= 9983
 PM[B0,B5,0]: c[B0,0] - c[B5,0] + 100 delta[B0,B5,0] <= 89.5
 PM[B0,B5,1]: c[B0,1] - c[B5,1] + 10000 delta[B0,B5,1] <= 9989.5
 PM[B0,B6,0]: c[B0,0] - c[B6,0] + 100 delta[B0,B6,0] <= 82
 PM[B0,B6,1]: c[B0,1] - c[B6,1] + 10000 delta[B0,B6,1] <= 9985.5
 PM[B0,B7,0]: c[B0,0] - c[B7,0] + 100 delta[B0,B7,0] <= 80
 PM[B0,B7,1]: c[B0,1] - c[B7,1] + 10000 delta[B0,B7,1] <= 9984.5
 PM[B0,B8,0]: c[B0,0] - c[B8,0] + 100 delta[B0,B8,0] <= 92
 PM[B0,B8,1]: c[B0,1] - c[B8,1] + 10000 delta[B0,B8,1] <= 9986.5
 PM[B0,B9,0]: c[B0,0] - c[B9,0] + 100 delta[B0,B9,0] <= 83
 PM[B0,B9,1]: c[B0,1] - c[B9,1] + 10000 delta[B0,B9,1] <= 9985
 PM[B0,B10,0]: c[B0,0] - c[B10,0] + 100 delta[B0,B10,0] <= 90.5
 PM[B0,B10,1]: c[B0,1] - c[B10,1] + 10000 delta[B0,B10,1] <= 9989.5
 PM[B0,B11,0]: c[B0,0] - c[B11,0] + 100 delta[B0,B11,0] <= 85
 PM[B0,B11,1]: c[B0,1] - c[B11,1] + 10000 delta[B0,B11,1] <= 9980.5
 PM[B0,B12,0]: c[B0,0] - c[B12,0] + 100 delta[B0,B12,0] <= 86
 PM[B0,B12,1]: c[B0,1] - c[B12,1] + 10000 delta[B0,B12,1] <= 9988.5
 PM[B0,B13,0]: c[B0,0] - c[B13,0] + 100 delta[B0,B13,0] <= 85.5
 PM[B0,B13,1]: c[B0,1] - c[B13,1] + 10000 delta[B0,B13,1] <= 9990.5
 PM[B0,B14,0]: c[B0,0] - c[B14,0] + 100 delta[B0,B14,0] <= 88.5
 PM[B0,B14,1]: c[B0,1] - c[B14,1] + 10000 delta[B0,B14,1] <= 9988
 PM[B0,B15,0]: c[B0,0] - c[B15,0] + 100 delta[B0,B15,0] <= 87.5
 PM[B0,B15,1]: c[B0,1] - c[B15,1] + 10000 delta[B0,B15,1] <= 9988.5
 PM[B0,B16,0]: c[B0,0] - c[B16,0] + 100 delta[B0,B16,0] <= 89
 PM[B0,B16,1]: c[B0,1] - c[B16,1] + 10000 delta[B0,B16,1] <= 9988.5
 PM[B0,B17,0]: c[B0,0] - c[B17,0] + 100 delta[B0,B17,0] <= 88.5
 PM[B0,B17,1]: c[B0,1] - c[B17,1] + 10000 delta[B0,B17,1] <= 9973
 PM[B0,B18,0]: c[B0,0] - c[B18,0] + 100 delta[B0,B18,0] <= 69.5
 PM[B0,B18,1]: c[B0,1] - c[B18,1] + 10000 delta[B0,B18,1] <= 9991
 PM[B0,B19,0]: c[B0,0] - c[B19,0] + 100 delta[B0,B19,0] <= 89
 PM[B0,B19,1]: c[B0,1] - c[B19,1] + 10000 delta[B0,B19,1] <= 9989.5
 PM[B0,B20,0]: c[B0,0] - c[B20,0] + 100 delta[B0,B20,0] <= 85.5
 PM[B0,B20,1]: c[B0,1] - c[B20,1] + 10000 delta[B0,B20,1] <= 9989.5
 PM[B0,B21,0]: c[B0,0] - c[B21,0] + 100 delta[B0,B21,0] <= 69.5
 PM[B0,B21,1]: c[B0,1] - c[B21,1] + 10000 delta[B0,B21,1] <= 9988.5
 PM[B0,B22,0]: c[B0,0] - c[B22,0] + 100 delta[B0,B22,0] <= 84
 PM[B0,B22,1]: c[B0,1] - c[B22,1] + 10000 delta[B0,B22,1] <= 9987.5
 PM[B0,B23,0]: c[B0,0] - c[B23,0] + 100 delta[B0,B23,0] <= 87.5
 PM[B0,B23,1]: c[B0,1] - c[B23,1] + 10000 delta[B0,B23,1] <= 9986.5
 PM[B0,B24,0]: c[B0,0] - c[B24,0] + 100 delta[B0,B24,0] <= 87.5
 PM[B0,B24,1]: c[B0,1] - c[B24,1] + 10000 delta[B0,B24,1] <= 9986
 PM[B0,B25,0]: c[B0,0] - c[B25,0] + 100 delta[B0,B25,0] <= 76.5
 PM[B0,B25,1]: c[B0,1] - c[B25,1] + 10000 delta[B0,B25,1] <= 9989
 PM[B0,B26,0]: c[B0,0] - c[B26,0] + 100 delta[B0,B26,0] <= 89
 PM[B0,B26,1]: c[B0,1] - c[B26,1] + 10000 delta[B0,B26,1] <= 9991
 PM[B0,B27,0]: c[B0,0] - c[B27,0] + 100 delta[B0,B27,0] <= 84.5
 PM[B0,B27,1]: c[B0,1] - c[B27,1] + 10000 delta[B0,B27,1] <= 9982
 PM[B0,B28,0]: c[B0,0] - c[B28,0] + 100 delta[B0,B28,0] <= 76
 PM[B0,B28,1]: c[B0,1] - c[B28,1] + 10000 delta[B0,B28,1] <= 9988
 PM[B0,B29,0]: c[B0,0] - c[B29,0] + 100 delta[B0,B29,0] <= 87.5
 PM[B0,B29,1]: c[B0,1] - c[B29,1] + 10000 delta[B0,B29,1] <= 9987
 PM[B0,B30,0]: c[B0,0] - c[B30,0] + 100 delta[B0,B30,0] <= 90.5
 PM[B0,B30,1]: c[B0,1] - c[B30,1] + 10000 delta[B0,B30,1] <= 9964.5
 PM[B0,B31,0]: c[B0,0] - c[B31,0] + 100 delta[B0,B31,0] <= 79.5
 PM[B0,B31,1]: c[B0,1] - c[B31,1] + 10000 delta[B0,B31,1] <= 9985
 PM[B0,B32,0]: c[B0,0] - c[B32,0] + 100 delta[B0,B32,0] <= 89.5
 PM[B0,B32,1]: c[B0,1] - c[B32,1] + 10000 delta[B0,B32,1] <= 9990
 PM[B0,B33,0]: c[B0,0] - c[B33,0] + 100 delta[B0,B33,0] <= 88
 PM[B0,B33,1]: c[B0,1] - c[B33,1] + 10000 delta[B0,B33,1] <= 9991.5
 PM[B0,B34,0]: c[B0,0] - c[B34,0] + 100 delta[B0,B34,0] <= 93
 PM[B0,B34,1]: c[B0,1] - c[B34,1] + 10000 delta[B0,B34,1] <= 9988
 PM[B1,B0,0]: - c[B0,0] + c[B1,0] + 95 delta[B1,B0,0] <= 68.5
 PM[B1,B0,1]: - c[B0,1] + c[B1,1] + 10000 delta[B1,B0,1] <= 9977
 PM[B1,B2,0]: c[B1,0] - c[B2,0] + 100 delta[B1,B2,0] <= 75
 PM[B1,B2,1]: c[B1,1] - c[B2,1] + 10000 delta[B1,B2,1] <= 9979
 PM[B1,B3,0]: c[B1,0] - c[B3,0] + 100 delta[B1,B3,0] <= 70
 PM[B1,B3,1]: c[B1,1] - c[B3,1] + 10000 delta[B1,B3,1] <= 9984
 PM[B1,B4,0]: c[B1,0] - c[B4,0] + 100 delta[B1,B4,0] <= 75
 PM[B1,B4,1]: c[B1,1] - c[B4,1] + 10000 delta[B1,B4,1] <= 9982
 PM[B1,B5,0]: c[B1,0] - c[B5,0] + 97 delta[B1,B5,0] <= 72
 PM[B1,B5,1]: c[B1,1] - c[B5,1] + 10000 delta[B1,B5,1] <= 9988.5
 PM[B1,B6,0]: c[B1,0] - c[B6,0] + 94 delta[B1,B6,0] <= 64.5
 PM[B1,B6,1]: c[B1,1] - c[B6,1] + 10000 delta[B1,B6,1] <= 9984.5
 PM[B1,B7,0]: c[B1,0] - c[B7,0] + 92 delta[B1,B7,0] <= 62.5
 PM[B1,B7,1]: c[B1,1] - c[B7,1] + 10000 delta[B1,B7,1] <= 9983.5
 PM[B1,B8,0]: c[B1,0] - c[B8,0] + 100 delta[B1,B8,0] <= 74.5
 PM[B1,B8,1]: c[B1,1] - c[B8,1] + 10000 delta[B1,B8,1] <= 9985.5
 PM[B1,B9,0]: c[B1,0] - c[B9,0] + 93 delta[B1,B9,0] <= 65.5
 PM[B1,B9,1]: c[B1,1] - c[B9,1] + 10000 delta[B1,B9,1] <= 9984
 PM[B1,B10,0]: c[B1,0] - c[B10,0] + 100 delta[B1,B10,0] <= 73
 PM[B1,B10,1]: c[B1,1] - c[B10,1] + 10000 delta[B1,B10,1] <= 9988.5
 PM[B1,B11,0]: c[B1,0] - c[B11,0] + 94 delta[B1,B11,0] <= 67.5
 PM[B1,B11,1]: c[B1,1] - c[B11,1] + 10000 delta[B1,B11,1] <= 9979.5
 PM[B1,B12,0]: c[B1,0] - c[B12,0] + 100 delta[B1,B12,0] <= 68.5
 PM[B1,B12,1]: c[B1,1] - c[B12,1] + 10000 delta[B1,B12,1] <= 9987.5
 PM[B1,B13,0]: c[B1,0] - c[B13,0] + 97 delta[B1,B13,0] <= 68
 PM[B1,B13,1]: c[B1,1] - c[B13,1] + 10000 delta[B1,B13,1] <= 9989.5
 PM[B1,B14,0]: c[B1,0] - c[B14,0] + 100 delta[B1,B14,0] <= 71
 PM[B1,B14,1]: c[B1,1] - c[B14,1] + 10000 delta[B1,B14,1] <= 9987
 PM[B1,B15,0]: c[B1,0] - c[B15,0] + 100 delta[B1,B15,0] <= 70
 PM[B1,B15,1]: c[B1,1] - c[B15,1] + 10000 delta[B1,B15,1] <= 9987.5
 PM[B1,B16,0]: c[B1,0] - c[B16,0] + 100 delta[B1,B16,0] <= 71.5
 PM[B1,B16,1]: c[B1,1] - c[B16,1] + 10000 delta[B1,B16,1] <= 9987.5
 PM[B1,B17,0]: c[B1,0] - c[B17,0] + 100 delta[B1,B17,0] <= 71
 PM[B1,B17,1]: c[B1,1] - c[B17,1] + 10000 delta[B1,B17,1] <= 9972
 PM[B1,B18,0]: c[B1,0] - c[B18,0] + 86 delta[B1,B18,0] <= 52
 PM[B1,B18,1]: c[B1,1] - c[B18,1] + 10000 delta[B1,B18,1] <= 9990
 PM[B1,B19,0]: c[B1,0] - c[B19,0] + 100 delta[B1,B19,0] <= 71.5
 PM[B1,B19,1]: c[B1,1] - c[B19,1] + 10000 delta[B1,B19,1] <= 9988.5
 PM[B1,B20,0]: c[B1,0] - c[B20,0] + 98 delta[B1,B20,0] <= 68
 PM[B1,B20,1]: c[B1,1] - c[B20,1] + 10000 delta[B1,B20,1] <= 9988.5
 PM[B1,B21,0]: c[B1,0] - c[B21,0] + 86 delta[B1,B21,0] <= 52
 PM[B1,B21,1]: c[B1,1] - c[B21,1] + 10000 delta[B1,B21,1] <= 9987.5
 PM[B1,B22,0]: c[B1,0] - c[B22,0] + 93 delta[B1,B22,0] <= 66.5
 PM[B1,B22,1]: c[B1,1] - c[B22,1] + 10000 delta[B1,B22,1] <= 9986.5
 PM[B1,B23,0]: c[B1,0] - c[B23,0] + 96 delta[B1,B23,0] <= 70
 PM[B1,B23,1]: c[B1,1] - c[B23,1] + 10000 delta[B1,B23,1] <= 9985.5
 PM[B1,B24,0]: c[B1,0] - c[B24,0] + 97 delta[B1,B24,0] <= 70
 PM[B1,B24,1]: c[B1,1] - c[B24,1] + 10000 delta[B1,B24,1] <= 9985
 PM[B1,B25,0]: c[B1,0] - c[B25,0] + 89 delta[B1,B25,0] <= 59
 PM[B1,B25,1]: c[B1,1] - c[B25,1] + 10000 delta[B1,B25,1] <= 9988
 PM[B1,B26,0]: c[B1,0] - c[B26,0] + 97 delta[B1,B26,0] <= 71.5
 PM[B1,B26,1]: c[B1,1] - c[B26,1] + 10000 delta[B1,B26,1] <= 9990
 PM[B1,B27,0]: c[B1,0] - c[B27,0] + 93 delta[B1,B27,0] <= 67
 PM[B1,B27,1]: c[B1,1] - c[B27,1] + 10000 delta[B1,B27,1] <= 9981
 PM[B1,B28,0]: c[B1,0] - c[B28,0] + 89 delta[B1,B28,0] <= 58.5
 PM[B1,B28,1]: c[B1,1] - c[B28,1] + 10000 delta[B1,B28,1] <= 9987
 PM[B1,B29,0]: c[B1,0] - c[B29,0] + 100 delta[B1,B29,0] <= 70
 PM[B1,B29,1]: c[B1,1] - c[B29,1] + 10000 delta[B1,B29,1] <= 9986
 PM[B1,B30,0]: c[B1,0] - c[B30,0] + 98 delta[B1,B30,0] <= 73
 PM[B1,B30,1]: c[B1,1] - c[B30,1] + 10000 delta[B1,B30,1] <= 9963.5
 PM[B1,B31,0]: c[B1,0] - c[B31,0] + 93 delta[B1,B31,0] <= 62
 PM[B1,B31,1]: c[B1,1] - c[B31,1] + 10000 delta[B1,B31,1] <= 9984
 PM[B1,B32,0]: c[B1,0] - c[B32,0] + 100 delta[B1,B32,0] <= 72
 PM[B1,B32,1]: c[B1,1] - c[B32,1] + 10000 delta[B1,B32,1] <= 9989
 PM[B1,B33,0]: c[B1,0] - c[B33,0] + 100 delta[B1,B33,0] <= 70.5
 PM[B1,B33,1]: c[B1,1] - c[B33,1] + 10000 delta[B1,B33,1] <= 9990.5
 PM[B1,B34,0]: c[B1,0] - c[B34,0] + 100 delta[B1,B34,0] <= 75.5
 PM[B1,B34,1]: c[B1,1] - c[B34,1] + 10000 delta[B1,B34,1] <= 9987
 PM[B2,B0,0]: - c[B0,0] + c[B2,0] + 96 delta[B2,B0,0] <= 83.5
 PM[B2,B0,1]: - c[B0,1] + c[B2,1] + 10000 delta[B2,B0,1] <= 9978
 PM[B2,B1,0]: - c[B1,0] + c[B2,0] + 100 delta[B2,B1,0] <= 85
 PM[B2,B1,1]: - c[B1,1] + c[B2,1] + 10000 delta[B2,B1,1] <= 9988
 PM[B2,B3,0]: c[B2,0] - c[B3,0] + 100 delta[B2,B3,0] <= 85
 PM[B2,B3,1]: c[B2,1] - c[B3,1] + 10000 delta[B2,B3,1] <= 9985
 PM[B2,B4,0]: c[B2,0] - c[B4,0] + 100 delta[B2,B4,0] <= 90
 PM[B2,B4,1]: c[B2,1] - c[B4,1] + 10000 delta[B2,B4,1] <= 9983
 PM[B2,B5,0]: c[B2,0] - c[B5,0] + 97 delta[B2,B5,0] <= 87
 PM[B2,B5,1]: c[B2,1] - c[B5,1] + 10000 delta[B2,B5,1] <= 9989.5
 PM[B2,B6,0]: c[B2,0] - c[B6,0] + 96 delta[B2,B6,0] <= 79.5
 PM[B2,B6,1]: c[B2,1] - c[B6,1] + 10000 delta[B2,B6,1] <= 9985.5
 PM[B2,B7,0]: c[B2,0] - c[B7,0] + 96 delta[B2,B7,0] <= 77.5
 PM[B2,B7,1]: c[B2,1] - c[B7,1] + 10000 delta[B2,B7,1] <= 9984.5
 PM[B2,B8,0]: c[B2,0] - c[B8,0] + 100 delta[B2,B8,0] <= 89.5
 PM[B2,B8,1]: c[B2,1] - c[B8,1] + 10000 delta[B2,B8,1] <= 9986.5
 PM[B2,B9,0]: c[B2,0] - c[B9,0] + 96 delta[B2,B9,0] <= 80.5
 PM[B2,B9,1]: c[B2,1] - c[B9,1] + 10000 delta[B2,B9,1] <= 9985
 PM[B2,B10,0]: c[B2,0] - c[B10,0] + 100 delta[B2,B10,0] <= 88
 PM[B2,B10,1]: c[B2,1] - c[B10,1] + 10000 delta[B2,B10,1] <= 9989.5
 PM[B2,B11,0]: c[B2,0] - c[B11,0] + 96 delta[B2,B11,0] <= 82.5
 PM[B2,B11,1]: c[B2,1] - c[B11,1] + 10000 delta[B2,B11,1] <= 9980.5
 PM[B2,B12,0]: c[B2,0] - c[B12,0] + 100 delta[B2,B12,0] <= 83.5
 PM[B2,B12,1]: c[B2,1] - c[B12,1] + 10000 delta[B2,B12,1] <= 9988.5
 PM[B2,B13,0]: c[B2,0] - c[B13,0] + 97 delta[B2,B13,0] <= 83
 PM[B2,B13,1]: c[B2,1] - c[B13,1] + 10000 delta[B2,B13,1] <= 9990.5
 PM[B2,B14,0]: c[B2,0] - c[B14,0] + 100 delta[B2,B14,0] <= 86
 PM[B2,B14,1]: c[B2,1] - c[B14,1] + 10000 delta[B2,B14,1] <= 9988
 PM[B2,B15,0]: c[B2,0] - c[B15,0] + 100 delta[B2,B15,0] <= 85
 PM[B2,B15,1]: c[B2,1] - c[B15,1] + 10000 delta[B2,B15,1] <= 9988.5
 PM[B2,B16,0]: c[B2,0] - c[B16,0] + 100 delta[B2,B16,0] <= 86.5
 PM[B2,B16,1]: c[B2,1] - c[B16,1] + 10000 delta[B2,B16,1] <= 9988.5
 PM[B2,B17,0]: c[B2,0] - c[B17,0] + 100 delta[B2,B17,0] <= 86
 PM[B2,B17,1]: c[B2,1] - c[B17,1] + 10000 delta[B2,B17,1] <= 9973
 PM[B2,B18,0]: c[B2,0] - c[B18,0] + 96 delta[B2,B18,0] <= 67
 PM[B2,B18,1]: c[B2,1] - c[B18,1] + 10000 delta[B2,B18,1] <= 9991
 PM[B2,B19,0]: c[B2,0] - c[B19,0] + 100 delta[B2,B19,0] <= 86.5
 PM[B2,B19,1]: c[B2,1] - c[B19,1] + 10000 delta[B2,B19,1] <= 9989.5
 PM[B2,B20,0]: c[B2,0] - c[B20,0] + 98 delta[B2,B20,0] <= 83
 PM[B2,B20,1]: c[B2,1] - c[B20,1] + 10000 delta[B2,B20,1] <= 9989.5
 PM[B2,B21,0]: c[B2,0] - c[B21,0] + 96 delta[B2,B21,0] <= 67
 PM[B2,B21,1]: c[B2,1] - c[B21,1] + 10000 delta[B2,B21,1] <= 9988.5
 PM[B2,B22,0]: c[B2,0] - c[B22,0] + 96 delta[B2,B22,0] <= 81.5
 PM[B2,B22,1]: c[B2,1] - c[B22,1] + 10000 delta[B2,B22,1] <= 9987.5
 PM[B2,B23,0]: c[B2,0] - c[B23,0] + 96 delta[B2,B23,0] <= 85
 PM[B2,B23,1]: c[B2,1] - c[B23,1] + 10000 delta[B2,B23,1] <= 9986.5
 PM[B2,B24,0]: c[B2,0] - c[B24,0] + 97 delta[B2,B24,0] <= 85
 PM[B2,B24,1]: c[B2,1] - c[B24,1] + 10000 delta[B2,B24,1] <= 9986
 PM[B2,B25,0]: c[B2,0] - c[B25,0] + 96 delta[B2,B25,0] <= 74
 PM[B2,B25,1]: c[B2,1] - c[B25,1] + 10000 delta[B2,B25,1] <= 9989
 PM[B2,B26,0]: c[B2,0] - c[B26,0] + 97 delta[B2,B26,0] <= 86.5
 PM[B2,B26,1]: c[B2,1] - c[B26,1] + 10000 delta[B2,B26,1] <= 9991
 PM[B2,B27,0]: c[B2,0] - c[B27,0] + 96 delta[B2,B27,0] <= 82
 PM[B2,B27,1]: c[B2,1] - c[B27,1] + 10000 delta[B2,B27,1] <= 9982
 PM[B2,B28,0]: c[B2,0] - c[B28,0] + 96 delta[B2,B28,0] <= 73.5
 PM[B2,B28,1]: c[B2,1] - c[B28,1] + 10000 delta[B2,B28,1] <= 9988
 PM[B2,B29,0]: c[B2,0] - c[B29,0] + 100 delta[B2,B29,0] <= 85
 PM[B2,B29,1]: c[B2,1] - c[B29,1] + 10000 delta[B2,B29,1] <= 9987
 PM[B2,B30,0]: c[B2,0] - c[B30,0] + 98 delta[B2,B30,0] <= 88
 PM[B2,B30,1]: c[B2,1] - c[B30,1] + 10000 delta[B2,B30,1] <= 9964.5
 PM[B2,B31,0]: c[B2,0] - c[B31,0] + 96 delta[B2,B31,0] <= 77
 PM[B2,B31,1]: c[B2,1] - c[B31,1] + 10000 delta[B2,B31,1] <= 9985
 PM[B2,B32,0]: c[B2,0] - c[B32,0] + 100 delta[B2,B32,0] <= 87
 PM[B2,B32,1]: c[B2,1] - c[B32,1] + 10000 delta[B2,B32,1] <= 9990
 PM[B2,B33,0]: c[B2,0] - c[B33,0] + 100 delta[B2,B33,0] <= 85.5
 PM[B2,B33,1]: c[B2,1] - c[B33,1] + 10000 delta[B2,B33,1] <= 9991.5
 PM[B2,B34,0]: c[B2,0] - c[B34,0] + 100 delta[B2,B34,0] <= 90.5
 PM[B2,B34,1]: c[B2,1] - c[B34,1] + 10000 delta[B2,B34,1] <= 9988
 PM[B3,B0,0]: - c[B0,0] + c[B3,0] + 100 delta[B3,B0,0] <= 82.5
 PM[B3,B0,1]: - c[B0,1] + c[B3,1] + 10000 delta[B3,B0,1] <= 9977
 PM[B3,B1,0]: - c[B1,0] + c[B3,0] + 100 delta[B3,B1,0] <= 84
 PM[B3,B1,1]: - c[B1,1] + c[B3,1] + 10000 delta[B3,B1,1] <= 9987
 PM[B3,B2,0]: - c[B2,0] + c[B3,0] + 100 delta[B3,B2,0] <= 89
 PM[B3,B2,1]: - c[B2,1] + c[B3,1] + 10000 delta[B3,B2,1] <= 9979
 PM[B3,B4,0]: c[B3,0] - c[B4,0] + 100 delta[B3,B4,0] <= 89
 PM[B3,B4,1]: c[B3,1] - c[B4,1] + 10000 delta[B3,B4,1] <= 9982
 PM[B3,B5,0]: c[B3,0] - c[B5,0] + 100 delta[B3,B5,0] <= 86
 PM[B3,B5,1]: c[B3,1] - c[B5,1] + 10000 delta[B3,B5,1] <= 9988.5
 PM[B3,B6,0]: c[B3,0] - c[B6,0] + 100 delta[B3,B6,0] <= 78.5
 PM[B3,B6,1]: c[B3,1] - c[B6,1] + 10000 delta[B3,B6,1] <= 9984.5
 PM[B3,B7,0]: c[B3,0] - c[B7,0] + 100 delta[B3,B7,0] <= 76.5
 PM[B3,B7,1]: c[B3,1] - c[B7,1] + 10000 delta[B3,B7,1] <= 9983.5
 PM[B3,B8,0]: c[B3,0] - c[B8,0] + 100 delta[B3,B8,0] <= 88.5
 PM[B3,B8,1]: c[B3,1] - c[B8,1] + 10000 delta[B3,B8,1] <= 9985.5
 PM[B3,B9,0]: c[B3,0] - c[B9,0] + 100 delta[B3,B9,0] <= 79.5
 PM[B3,B9,1]: c[B3,1] - c[B9,1] + 10000 delta[B3,B9,1] <= 9984
 PM[B3,B10,0]: c[B3,0] - c[B10,0] + 100 delta[B3,B10,0] <= 87
 PM[B3,B10,1]: c[B3,1] - c[B10,1] + 10000 delta[B3,B10,1] <= 9988.5
 PM[B3,B11,0]: c[B3,0] - c[B11,0] + 100 delta[B3,B11,0] <= 81.5
 PM[B3,B11,1]: c[B3,1] - c[B11,1] + 10000 delta[B3,B11,1] <= 9979.5
 PM[B3,B12,0]: c[B3,0] - c[B12,0] + 100 delta[B3,B12,0] <= 82.5
 PM[B3,B12,1]: c[B3,1] - c[B12,1] + 10000 delta[B3,B12,1] <= 9987.5
 PM[B3,B13,0]: c[B3,0] - c[B13,0] + 100 delta[B3,B13,0] <= 82
 PM[B3,B13,1]: c[B3,1] - c[B13,1] + 10000 delta[B3,B13,1] <= 9989.5
 PM[B3,B14,0]: c[B3,0] - c[B14,0] + 100 delta[B3,B14,0] <= 85
 PM[B3,B14,1]: c[B3,1] - c[B14,1] + 10000 delta[B3,B14,1] <= 9987
 PM[B3,B15,0]: c[B3,0] - c[B15,0] + 100 delta[B3,B15,0] <= 84
 PM[B3,B15,1]: c[B3,1] - c[B15,1] + 10000 delta[B3,B15,1] <= 9987.5
 PM[B3,B16,0]: c[B3,0] - c[B16,0] + 100 delta[B3,B16,0] <= 85.5
 PM[B3,B16,1]: c[B3,1] - c[B16,1] + 10000 delta[B3,B16,1] <= 9987.5
 PM[B3,B17,0]: c[B3,0] - c[B17,0] + 100 delta[B3,B17,0] <= 85
 PM[B3,B17,1]: c[B3,1] - c[B17,1] + 10000 delta[B3,B17,1] <= 9972
 PM[B3,B18,0]: c[B3,0] - c[B18,0] + 100 delta[B3,B18,0] <= 66
 PM[B3,B18,1]: c[B3,1] - c[B18,1] + 10000 delta[B3,B18,1] <= 9990
 PM[B3,B19,0]: c[B3,0] - c[B19,0] + 100 delta[B3,B19,0] <= 85.5
 PM[B3,B19,1]: c[B3,1] - c[B19,1] + 10000 delta[B3,B19,1] <= 9988.5
 PM[B3,B20,0]: c[B3,0] - c[B20,0] + 100 delta[B3,B20,0] <= 82
 PM[B3,B20,1]: c[B3,1] - c[B20,1] + 10000 delta[B3,B20,1] <= 9988.5
 PM[B3,B21,0]: c[B3,0] - c[B21,0] + 100 delta[B3,B21,0] <= 66
 PM[B3,B21,1]: c[B3,1] - c[B21,1] + 10000 delta[B3,B21,1] <= 9987.5
 PM[B3,B22,0]: c[B3,0] - c[B22,0] + 100 delta[B3,B22,0] <= 80.5
 PM[B3,B22,1]: c[B3,1] - c[B22,1] + 10000 delta[B3,B22,1] <= 9986.5
 PM[B3,B23,0]: c[B3,0] - c[B23,0] + 100 delta[B3,B23,0] <= 84
 PM[B3,B23,1]: c[B3,1] - c[B23,1] + 10000 delta[B3,B23,1] <= 9985.5
 PM[B3,B24,0]: c[B3,0] - c[B24,0] + 100 delta[B3,B24,0] <= 84
 PM[B3,B24,1]: c[B3,1] - c[B24,1] + 10000 delta[B3,B24,1] <= 9985
 PM[B3,B25,0]: c[B3,0] - c[B25,0] + 100 delta[B3,B25,0] <= 73
 PM[B3,B25,1]: c[B3,1] - c[B25,1] + 10000 delta[B3,B25,1] <= 9988
 PM[B3,B26,0]: c[B3,0] - c[B26,0] + 100 delta[B3,B26,0] <= 85.5
 PM[B3,B26,1]: c[B3,1] - c[B26,1] + 10000 delta[B3,B26,1] <= 9990
 PM[B3,B27,0]: c[B3,0] - c[B27,0] + 100 delta[B3,B27,0] <= 81
 PM[B3,B27,1]: c[B3,1] - c[B27,1] + 10000 delta[B3,B27,1] <= 9981
 PM[B3,B28,0]: c[B3,0] - c[B28,0] + 100 delta[B3,B28,0] <= 72.5
 PM[B3,B28,1]: c[B3,1] - c[B28,1] + 10000 delta[B3,B28,1] <= 9987
 PM[B3,B29,0]: c[B3,0] - c[B29,0] + 100 delta[B3,B29,0] <= 84
 PM[B3,B29,1]: c[B3,1] - c[B29,1] + 10000 delta[B3,B29,1] <= 9986
 PM[B3,B30,0]: c[B3,0] - c[B30,0] + 100 delta[B3,B30,0] <= 87
 PM[B3,B30,1]: c[B3,1] - c[B30,1] + 10000 delta[B3,B30,1] <= 9963.5
 PM[B3,B31,0]: c[B3,0] - c[B31,0] + 100 delta[B3,B31,0] <= 76
 PM[B3,B31,1]: c[B3,1] - c[B31,1] + 10000 delta[B3,B31,1] <= 9984
 PM[B3,B32,0]: c[B3,0] - c[B32,0] + 100 delta[B3,B32,0] <= 86
 PM[B3,B32,1]: c[B3,1] - c[B32,1] + 10000 delta[B3,B32,1] <= 9989
 PM[B3,B33,0]: c[B3,0] - c[B33,0] + 100 delta[B3,B33,0] <= 84.5
 PM[B3,B33,1]: c[B3,1] - c[B33,1] + 10000 delta[B3,B33,1] <= 9990.5
 PM[B3,B34,0]: c[B3,0] - c[B34,0] + 100 delta[B3,B34,0] <= 89.5
 PM[B3,B34,1]: c[B3,1] - c[B34,1] + 10000 delta[B3,B34,1] <= 9987
 PM[B4,B0,0]: - c[B0,0] + c[B4,0] + 100 delta[B4,B0,0] <= 87.5
 PM[B4,B0,1]: - c[B0,1] + c[B4,1] + 9994 delta[B4,B0,1] <= 9971
 PM[B4,B1,0]: - c[B1,0] + c[B4,0] + 100 delta[B4,B1,0] <= 89
 PM[B4,B1,1]: - c[B1,1] + c[B4,1] + 10000 delta[B4,B1,1] <= 9981
 PM[B4,B2,0]: - c[B2,0] + c[B4,0] + 100 delta[B4,B2,0] <= 94
 PM[B4,B2,1]: - c[B2,1] + c[B4,1] + 9994 delta[B4,B2,1] <= 9973
 PM[B4,B3,0]: - c[B3,0] + c[B4,0] + 100 delta[B4,B3,0] <= 89
 PM[B4,B3,1]: - c[B3,1] + c[B4,1] + 9997 delta[B4,B3,1] <= 9978
 PM[B4,B5,0]: c[B4,0] - c[B5,0] + 100 delta[B4,B5,0] <= 91
 PM[B4,B5,1]: c[B4,1] - c[B5,1] + 9998 delta[B4,B5,1] <= 9982.5
 PM[B4,B6,0]: c[B4,0] - c[B6,0] + 100 delta[B4,B6,0] <= 83.5
 PM[B4,B6,1]: c[B4,1] - c[B6,1] + 9995 delta[B4,B6,1] <= 9978.5
 PM[B4,B7,0]: c[B4,0] - c[B7,0] + 100 delta[B4,B7,0] <= 81.5
 PM[B4,B7,1]: c[B4,1] - c[B7,1] + 9994 delta[B4,B7,1] <= 9977.5
 PM[B4,B8,0]: c[B4,0] - c[B8,0] + 100 delta[B4,B8,0] <= 93.5
 PM[B4,B8,1]: c[B4,1] - c[B8,1] + 10000 delta[B4,B8,1] <= 9979.5
 PM[B4,B9,0]: c[B4,0] - c[B9,0] + 100 delta[B4,B9,0] <= 84.5
 PM[B4,B9,1]: c[B4,1] - c[B9,1] + 9995 delta[B4,B9,1] <= 9978
 PM[B4,B10,0]: c[B4,0] - c[B10,0] + 100 delta[B4,B10,0] <= 92
 PM[B4,B10,1]: c[B4,1] - c[B10,1] + 10000 delta[B4,B10,1] <= 9982.5
 PM[B4,B11,0]: c[B4,0] - c[B11,0] + 100 delta[B4,B11,0] <= 86.5
 PM[B4,B11,1]: c[B4,1] - c[B11,1] + 9994 delta[B4,B11,1] <= 9973.5
 PM[B4,B12,0]: c[B4,0] - c[B12,0] + 100 delta[B4,B12,0] <= 87.5
 PM[B4,B12,1]: c[B4,1] - c[B12,1] + 10000 delta[B4,B12,1] <= 9981.5
 PM[B4,B13,0]: c[B4,0] - c[B13,0] + 100 delta[B4,B13,0] <= 87
 PM[B4,B13,1]: c[B4,1] - c[B13,1] + 10000 delta[B4,B13,1] <= 9983.5
 PM[B4,B14,0]: c[B4,0] - c[B14,0] + 100 delta[B4,B14,0] <= 90
 PM[B4,B14,1]: c[B4,1] - c[B14,1] + 9998 delta[B4,B14,1] <= 9981
 PM[B4,B15,0]: c[B4,0] - c[B15,0] + 100 delta[B4,B15,0] <= 89
 PM[B4,B15,1]: c[B4,1] - c[B15,1] + 10000 delta[B4,B15,1] <= 9981.5
 PM[B4,B16,0]: c[B4,0] - c[B16,0] + 100 delta[B4,B16,0] <= 90.5
 PM[B4,B16,1]: c[B4,1] - c[B16,1] + 9998 delta[B4,B16,1] <= 9981.5
 PM[B4,B17,0]: c[B4,0] - c[B17,0] + 100 delta[B4,B17,0] <= 90
 PM[B4,B17,1]: c[B4,1] - c[B17,1] + 9994 delta[B4,B17,1] <= 9966
 PM[B4,B18,0]: c[B4,0] - c[B18,0] + 100 delta[B4,B18,0] <= 71
 PM[B4,B18,1]: c[B4,1] - c[B18,1] + 10000 delta[B4,B18,1] <= 9984
 PM[B4,B19,0]: c[B4,0] - c[B19,0] + 100 delta[B4,B19,0] <= 90.5
 PM[B4,B19,1]: c[B4,1] - c[B19,1] + 10000 delta[B4,B19,1] <= 9982.5
 PM[B4,B20,0]: c[B4,0] - c[B20,0] + 100 delta[B4,B20,0] <= 87
 PM[B4,B20,1]: c[B4,1] - c[B20,1] + 10000 delta[B4,B20,1] <= 9982.5
 PM[B4,B21,0]: c[B4,0] - c[B21,0] + 100 delta[B4,B21,0] <= 71
 PM[B4,B21,1]: c[B4,1] - c[B21,1] + 9998 delta[B4,B21,1] <= 9981.5
 PM[B4,B22,0]: c[B4,0] - c[B22,0] + 100 delta[B4,B22,0] <= 85.5
 PM[B4,B22,1]: c[B4,1] - c[B22,1] + 10000 delta[B4,B22,1] <= 9980.5
 PM[B4,B23,0]: c[B4,0] - c[B23,0] + 100 delta[B4,B23,0] <= 89
 PM[B4,B23,1]: c[B4,1] - c[B23,1] + 10000 delta[B4,B23,1] <= 9979.5
 PM[B4,B24,0]: c[B4,0] - c[B24,0] + 100 delta[B4,B24,0] <= 89
 PM[B4,B24,1]: c[B4,1] - c[B24,1] + 10000 delta[B4,B24,1] <= 9979
 PM[B4,B25,0]: c[B4,0] - c[B25,0] + 100 delta[B4,B25,0] <= 78
 PM[B4,B25,1]: c[B4,1] - c[B25,1] + 9999 delta[B4,B25,1] <= 9982
 PM[B4,B26,0]: c[B4,0] - c[B26,0] + 100 delta[B4,B26,0] <= 90.5
 PM[B4,B26,1]: c[B4,1] - c[B26,1] + 10000 delta[B4,B26,1] <= 9984
 PM[B4,B27,0]: c[B4,0] - c[B27,0] + 100 delta[B4,B27,0] <= 86
 PM[B4,B27,1]: c[B4,1] - c[B27,1] + 9997 delta[B4,B27,1] <= 9975
 PM[B4,B28,0]: c[B4,0] - c[B28,0] + 100 delta[B4,B28,0] <= 77.5
 PM[B4,B28,1]: c[B4,1] - c[B28,1] + 9997 delta[B4,B28,1] <= 9981
 PM[B4,B29,0]: c[B4,0] - c[B29,0] + 100 delta[B4,B29,0] <= 89
 PM[B4,B29,1]: c[B4,1] - c[B29,1] + 10000 delta[B4,B29,1] <= 9980
 PM[B4,B30,0]: c[B4,0] - c[B30,0] + 100 delta[B4,B30,0] <= 92
 PM[B4,B30,1]: c[B4,1] - c[B30,1] + 9994 delta[B4,B30,1] <= 9957.5
 PM[B4,B31,0]: c[B4,0] - c[B31,0] + 100 delta[B4,B31,0] <= 81
 PM[B4,B31,1]: c[B4,1] - c[B31,1] + 9999 delta[B4,B31,1] <= 9978
 PM[B4,B32,0]: c[B4,0] - c[B32,0] + 100 delta[B4,B32,0] <= 91
 PM[B4,B32,1]: c[B4,1] - c[B32,1] + 10000 delta[B4,B32,1] <= 9983
 PM[B4,B33,0]: c[B4,0] - c[B33,0] + 100 delta[B4,B33,0] <= 89.5
 PM[B4,B33,1]: c[B4,1] - c[B33,1] + 10000 delta[B4,B33,1] <= 9984.5
 PM[B4,B34,0]: c[B4,0] - c[B34,0] + 100 delta[B4,B34,0] <= 94.5
 PM[B4,B34,1]: c[B4,1] - c[B34,1] + 10000 delta[B4,B34,1] <= 9981
 PM[B5,B0,0]: - c[B0,0] + c[B5,0] + 100 delta[B5,B0,0] <= 87.5
 PM[B5,B0,1]: - c[B0,1] + c[B5,1] + 10000 delta[B5,B0,1] <= 9980.5
 PM[B5,B1,0]: - c[B1,0] + c[B5,0] + 100 delta[B5,B1,0] <= 89
 PM[B5,B1,1]: - c[B1,1] + c[B5,1] + 10000 delta[B5,B1,1] <= 9990.5
 PM[B5,B2,0]: - c[B2,0] + c[B5,0] + 100 delta[B5,B2,0] <= 94
 PM[B5,B2,1]: - c[B2,1] + c[B5,1] + 10000 delta[B5,B2,1] <= 9982.5
 PM[B5,B3,0]: - c[B3,0] + c[B5,0] + 100 delta[B5,B3,0] <= 89
 PM[B5,B3,1]: - c[B3,1] + c[B5,1] + 10000 delta[B5,B3,1] <= 9987.5
 PM[B5,B4,0]: - c[B4,0] + c[B5,0] + 100 delta[B5,B4,0] <= 94
 PM[B5,B4,1]: - c[B4,1] + c[B5,1] + 10000 delta[B5,B4,1] <= 9985.5
 PM[B5,B6,0]: c[B5,0] - c[B6,0] + 100 delta[B5,B6,0] <= 83.5
 PM[B5,B6,1]: c[B5,1] - c[B6,1] + 10000 delta[B5,B6,1] <= 9988
 PM[B5,B7,0]: c[B5,0] - c[B7,0] + 100 delta[B5,B7,0] <= 81.5
 PM[B5,B7,1]: c[B5,1] - c[B7,1] + 10000 delta[B5,B7,1] <= 9987
 PM[B5,B8,0]: c[B5,0] - c[B8,0] + 100 delta[B5,B8,0] <= 93.5
 PM[B5,B8,1]: c[B5,1] - c[B8,1] + 10000 delta[B5,B8,1] <= 9989
 PM[B5,B9,0]: c[B5,0] - c[B9,0] + 100 delta[B5,B9,0] <= 84.5
 PM[B5,B9,1]: c[B5,1] - c[B9,1] + 10000 delta[B5,B9,1] <= 9987.5
 PM[B5,B10,0]: c[B5,0] - c[B10,0] + 100 delta[B5,B10,0] <= 92
 PM[B5,B10,1]: c[B5,1] - c[B10,1] + 10000 delta[B5,B10,1] <= 9992
 PM[B5,B11,0]: c[B5,0] - c[B11,0] + 100 delta[B5,B11,0] <= 86.5
 PM[B5,B11,1]: c[B5,1] - c[B11,1] + 10000 delta[B5,B11,1] <= 9983
 PM[B5,B12,0]: c[B5,0] - c[B12,0] + 100 delta[B5,B12,0] <= 87.5
 PM[B5,B12,1]: c[B5,1] - c[B12,1] + 10000 delta[B5,B12,1] <= 9991
 PM[B5,B13,0]: c[B5,0] - c[B13,0] + 100 delta[B5,B13,0] <= 87
 PM[B5,B13,1]: c[B5,1] - c[B13,1] + 10000 delta[B5,B13,1] <= 9993
 PM[B5,B14,0]: c[B5,0] - c[B14,0] + 100 delta[B5,B14,0] <= 90
 PM[B5,B14,1]: c[B5,1] - c[B14,1] + 10000 delta[B5,B14,1] <= 9990.5
 PM[B5,B15,0]: c[B5,0] - c[B15,0] + 100 delta[B5,B15,0] <= 89
 PM[B5,B15,1]: c[B5,1] - c[B15,1] + 10000 delta[B5,B15,1] <= 9991
 PM[B5,B16,0]: c[B5,0] - c[B16,0] + 100 delta[B5,B16,0] <= 90.5
 PM[B5,B16,1]: c[B5,1] - c[B16,1] + 10000 delta[B5,B16,1] <= 9991
 PM[B5,B17,0]: c[B5,0] - c[B17,0] + 100 delta[B5,B17,0] <= 90
 PM[B5,B17,1]: c[B5,1] - c[B17,1] + 10000 delta[B5,B17,1] <= 9975.5
 PM[B5,B18,0]: c[B5,0] - c[B18,0] + 100 delta[B5,B18,0] <= 71
 PM[B5,B18,1]: c[B5,1] - c[B18,1] + 10000 delta[B5,B18,1] <= 9993.5
 PM[B5,B19,0]: c[B5,0] - c[B19,0] + 100 delta[B5,B19,0] <= 90.5
 PM[B5,B19,1]: c[B5,1] - c[B19,1] + 10000 delta[B5,B19,1] <= 9992
 PM[B5,B20,0]: c[B5,0] - c[B20,0] + 100 delta[B5,B20,0] <= 87
 PM[B5,B20,1]: c[B5,1] - c[B20,1] + 10000 delta[B5,B20,1] <= 9992
 PM[B5,B21,0]: c[B5,0] - c[B21,0] + 100 delta[B5,B21,0] <= 71
 PM[B5,B21,1]: c[B5,1] - c[B21,1] + 10000 delta[B5,B21,1] <= 9991
 PM[B5,B22,0]: c[B5,0] - c[B22,0] + 100 delta[B5,B22,0] <= 85.5
 PM[B5,B22,1]: c[B5,1] - c[B22,1] + 10000 delta[B5,B22,1] <= 9990
 PM[B5,B23,0]: c[B5,0] - c[B23,0] + 100 delta[B5,B23,0] <= 89
 PM[B5,B23,1]: c[B5,1] - c[B23,1] + 10000 delta[B5,B23,1] <= 9989
 PM[B5,B24,0]: c[B5,0] - c[B24,0] + 100 delta[B5,B24,0] <= 89
 PM[B5,B24,1]: c[B5,1] - c[B24,1] + 10000 delta[B5,B24,1] <= 9988.5
 PM[B5,B25,0]: c[B5,0] - c[B25,0] + 100 delta[B5,B25,0] <= 78
 PM[B5,B25,1]: c[B5,1] - c[B25,1] + 10000 delta[B5,B25,1] <= 9991.5
 PM[B5,B26,0]: c[B5,0] - c[B26,0] + 100 delta[B5,B26,0] <= 90.5
 PM[B5,B26,1]: c[B5,1] - c[B26,1] + 10000 delta[B5,B26,1] <= 9993.5
 PM[B5,B27,0]: c[B5,0] - c[B27,0] + 100 delta[B5,B27,0] <= 86
 PM[B5,B27,1]: c[B5,1] - c[B27,1] + 10000 delta[B5,B27,1] <= 9984.5
 PM[B5,B28,0]: c[B5,0] - c[B28,0] + 100 delta[B5,B28,0] <= 77.5
 PM[B5,B28,1]: c[B5,1] - c[B28,1] + 10000 delta[B5,B28,1] <= 9990.5
 PM[B5,B29,0]: c[B5,0] - c[B29,0] + 100 delta[B5,B29,0] <= 89
 PM[B5,B29,1]: c[B5,1] - c[B29,1] + 10000 delta[B5,B29,1] <= 9989.5
 PM[B5,B30,0]: c[B5,0] - c[B30,0] + 100 delta[B5,B30,0] <= 92
 PM[B5,B30,1]: c[B5,1] - c[B30,1] + 10000 delta[B5,B30,1] <= 9967
 PM[B5,B31,0]: c[B5,0] - c[B31,0] + 100 delta[B5,B31,0] <= 81
 PM[B5,B31,1]: c[B5,1] - c[B31,1] + 10000 delta[B5,B31,1] <= 9987.5
 PM[B5,B32,0]: c[B5,0] - c[B32,0] + 100 delta[B5,B32,0] <= 91
 PM[B5,B32,1]: c[B5,1] - c[B32,1] + 10000 delta[B5,B32,1] <= 9992.5
 PM[B5,B33,0]: c[B5,0] - c[B33,0] + 100 delta[B5,B33,0] <= 89.5
 PM[B5,B33,1]: c[B5,1] - c[B33,1] + 10000 delta[B5,B33,1] <= 9994
 PM[B5,B34,0]: c[B5,0] - c[B34,0] + 100 delta[B5,B34,0] <= 94.5
 PM[B5,B34,1]: c[B5,1] - c[B34,1] + 10000 delta[B5,B34,1] <= 9990.5
 PM[B6,B0,0]: - c[B0,0] + c[B6,0] + 100 delta[B6,B0,0] <= 83
 PM[B6,B0,1]: - c[B0,1] + c[B6,1] + 9993 delta[B6,B0,1] <= 9972.5
 PM[B6,B1,0]: - c[B1,0] + c[B6,0] + 100 delta[B6,B1,0] <= 84.5
 PM[B6,B1,1]: - c[B1,1] + c[B6,1] + 10000 delta[B6,B1,1] <= 9982.5
 PM[B6,B2,0]: - c[B2,0] + c[B6,0] + 100 delta[B6,B2,0] <= 89.5
 PM[B6,B2,1]: - c[B2,1] + c[B6,1] + 9993 delta[B6,B2,1] <= 9974.5
 PM[B6,B3,0]: - c[B3,0] + c[B6,0] + 100 delta[B6,B3,0] <= 84.5
 PM[B6,B3,1]: - c[B3,1] + c[B6,1] + 9997 delta[B6,B3,1] <= 9979.5
 PM[B6,B4,0]: - c[B4,0] + c[B6,0] + 100 delta[B6,B4,0] <= 89.5
 PM[B6,B4,1]: - c[B4,1] + c[B6,1] + 9995 delta[B6,B4,1] <= 9977.5
 PM[B6,B5,0]: - c[B5,0] + c[B6,0] + 100 delta[B6,B5,0] <= 86.5
 PM[B6,B5,1]: - c[B5,1] + c[B6,1] + 9998 delta[B6,B5,1] <= 9984
 PM[B6,B7,0]: c[B6,0] - c[B7,0] + 100 delta[B6,B7,0] <= 77
 PM[B6,B7,1]: c[B6,1] - c[B7,1] + 9994 delta[B6,B7,1] <= 9979
 PM[B6,B8,0]: c[B6,0] - c[B8,0] + 100 delta[B6,B8,0] <= 89
 PM[B6,B8,1]: c[B6,1] - c[B8,1] + 10000 delta[B6,B8,1] <= 9981
 PM[B6,B9,0]: c[B6,0] - c[B9,0] + 100 delta[B6,B9,0] <= 80
 PM[B6,B9,1]: c[B6,1] - c[B9,1] + 9995 delta[B6,B9,1] <= 9979.5
 PM[B6,B10,0]: c[B6,0] - c[B10,0] + 100 delta[B6,B10,0] <= 87.5
 PM[B6,B10,1]: c[B6,1] - c[B10,1] + 10000 delta[B6,B10,1] <= 9984
 PM[B6,B11,0]: c[B6,0] - c[B11,0] + 100 delta[B6,B11,0] <= 82
 PM[B6,B11,1]: c[B6,1] - c[B11,1] + 9993 delta[B6,B11,1] <= 9975
 PM[B6,B12,0]: c[B6,0] - c[B12,0] + 100 delta[B6,B12,0] <= 83
 PM[B6,B12,1]: c[B6,1] - c[B12,1] + 10000 delta[B6,B12,1] <= 9983
 PM[B6,B13,0]: c[B6,0] - c[B13,0] + 100 delta[B6,B13,0] <= 82.5
 PM[B6,B13,1]: c[B6,1] - c[B13,1] + 10000 delta[B6,B13,1] <= 9985
 PM[B6,B14,0]: c[B6,0] - c[B14,0] + 100 delta[B6,B14,0] <= 85.5
 PM[B6,B14,1]: c[B6,1] - c[B14,1] + 9998 delta[B6,B14,1] <= 9982.5
 PM[B6,B15,0]: c[B6,0] - c[B15,0] + 100 delta[B6,B15,0] <= 84.5
 PM[B6,B15,1]: c[B6,1] - c[B15,1] + 10000 delta[B6,B15,1] <= 9983
 PM[B6,B16,0]: c[B6,0] - c[B16,0] + 100 delta[B6,B16,0] <= 86
 PM[B6,B16,1]: c[B6,1] - c[B16,1] + 9998 delta[B6,B16,1] <= 9983
 PM[B6,B17,0]: c[B6,0] - c[B17,0] + 100 delta[B6,B17,0] <= 85.5
 PM[B6,B17,1]: c[B6,1] - c[B17,1] + 9993 delta[B6,B17,1] <= 9967.5
 PM[B6,B18,0]: c[B6,0] - c[B18,0] + 100 delta[B6,B18,0] <= 66.5
 PM[B6,B18,1]: c[B6,1] - c[B18,1] + 10000 delta[B6,B18,1] <= 9985.5
 PM[B6,B19,0]: c[B6,0] - c[B19,0] + 100 delta[B6,B19,0] <= 86
 PM[B6,B19,1]: c[B6,1] - c[B19,1] + 10000 delta[B6,B19,1] <= 9984
 PM[B6,B20,0]: c[B6,0] - c[B20,0] + 100 delta[B6,B20,0] <= 82.5
 PM[B6,B20,1]: c[B6,1] - c[B20,1] + 10000 delta[B6,B20,1] <= 9984
 PM[B6,B21,0]: c[B6,0] - c[B21,0] + 100 delta[B6,B21,0] <= 66.5
 PM[B6,B21,1]: c[B6,1] - c[B21,1] + 9998 delta[B6,B21,1] <= 9983
 PM[B6,B22,0]: c[B6,0] - c[B22,0] + 100 delta[B6,B22,0] <= 81
 PM[B6,B22,1]: c[B6,1] - c[B22,1] + 10000 delta[B6,B22,1] <= 9982
 PM[B6,B23,0]: c[B6,0] - c[B23,0] + 100 delta[B6,B23,0] <= 84.5
 PM[B6,B23,1]: c[B6,1] - c[B23,1] + 10000 delta[B6,B23,1] <= 9981
 PM[B6,B24,0]: c[B6,0] - c[B24,0] + 100 delta[B6,B24,0] <= 84.5
 PM[B6,B24,1]: c[B6,1] - c[B24,1] + 10000 delta[B6,B24,1] <= 9980.5
 PM[B6,B25,0]: c[B6,0] - c[B25,0] + 100 delta[B6,B25,0] <= 73.5
 PM[B6,B25,1]: c[B6,1] - c[B25,1] + 9999 delta[B6,B25,1] <= 9983.5
 PM[B6,B26,0]: c[B6,0] - c[B26,0] + 100 delta[B6,B26,0] <= 86
 PM[B6,B26,1]: c[B6,1] - c[B26,1] + 10000 delta[B6,B26,1] <= 9985.5
 PM[B6,B27,0]: c[B6,0] - c[B27,0] + 100 delta[B6,B27,0] <= 81.5
 PM[B6,B27,1]: c[B6,1] - c[B27,1] + 9997 delta[B6,B27,1] <= 9976.5
 PM[B6,B28,0]: c[B6,0] - c[B28,0] + 100 delta[B6,B28,0] <= 73
 PM[B6,B28,1]: c[B6,1] - c[B28,1] + 9997 delta[B6,B28,1] <= 9982.5
 PM[B6,B29,0]: c[B6,0] - c[B29,0] + 100 delta[B6,B29,0] <= 84.5
 PM[B6,B29,1]: c[B6,1] - c[B29,1] + 10000 delta[B6,B29,1] <= 9981.5
 PM[B6,B30,0]: c[B6,0] - c[B30,0] + 100 delta[B6,B30,0] <= 87.5
 PM[B6,B30,1]: c[B6,1] - c[B30,1] + 9993 delta[B6,B30,1] <= 9959
 PM[B6,B31,0]: c[B6,0] - c[B31,0] + 100 delta[B6,B31,0] <= 76.5
 PM[B6,B31,1]: c[B6,1] - c[B31,1] + 9999 delta[B6,B31,1] <= 9979.5
 PM[B6,B32,0]: c[B6,0] - c[B32,0] + 100 delta[B6,B32,0] <= 86.5
 PM[B6,B32,1]: c[B6,1] - c[B32,1] + 10000 delta[B6,B32,1] <= 9984.5
 PM[B6,B33,0]: c[B6,0] - c[B33,0] + 100 delta[B6,B33,0] <= 85
 PM[B6,B33,1]: c[B6,1] - c[B33,1] + 10000 delta[B6,B33,1] <= 9986
 PM[B6,B34,0]: c[B6,0] - c[B34,0] + 100 delta[B6,B34,0] <= 90
 PM[B6,B34,1]: c[B6,1] - c[B34,1] + 10000 delta[B6,B34,1] <= 9982.5
 PM[B7,B0,0]: - c[B0,0] + c[B7,0] + 100 delta[B7,B0,0] <= 83
 PM[B7,B0,1]: - c[B0,1] + c[B7,1] + 9994 delta[B7,B0,1] <= 9973.5
 PM[B7,B1,0]: - c[B1,0] + c[B7,0] + 100 delta[B7,B1,0] <= 84.5
 PM[B7,B1,1]: - c[B1,1] + c[B7,1] + 10000 delta[B7,B1,1] <= 9983.5
 PM[B7,B2,0]: - c[B2,0] + c[B7,0] + 100 delta[B7,B2,0] <= 89.5
 PM[B7,B2,1]: - c[B2,1] + c[B7,1] + 9994 delta[B7,B2,1] <= 9975.5
 PM[B7,B3,0]: - c[B3,0] + c[B7,0] + 100 delta[B7,B3,0] <= 84.5
 PM[B7,B3,1]: - c[B3,1] + c[B7,1] + 9997 delta[B7,B3,1] <= 9980.5
 PM[B7,B4,0]: - c[B4,0] + c[B7,0] + 100 delta[B7,B4,0] <= 89.5
 PM[B7,B4,1]: - c[B4,1] + c[B7,1] + 9995 delta[B7,B4,1] <= 9978.5
 PM[B7,B5,0]: - c[B5,0] + c[B7,0] + 100 delta[B7,B5,0] <= 86.5
 PM[B7,B5,1]: - c[B5,1] + c[B7,1] + 9998 delta[B7,B5,1] <= 9985
 PM[B7,B6,0]: - c[B6,0] + c[B7,0] + 100 delta[B7,B6,0] <= 79
 PM[B7,B6,1]: - c[B6,1] + c[B7,1] + 9995 delta[B7,B6,1] <= 9981
 PM[B7,B8,0]: c[B7,0] - c[B8,0] + 100 delta[B7,B8,0] <= 89
 PM[B7,B8,1]: c[B7,1] - c[B8,1] + 10000 delta[B7,B8,1] <= 9982
 PM[B7,B9,0]: c[B7,0] - c[B9,0] + 100 delta[B7,B9,0] <= 80
 PM[B7,B9,1]: c[B7,1] - c[B9,1] + 9995 delta[B7,B9,1] <= 9980.5
 PM[B7,B10,0]: c[B7,0] - c[B10,0] + 100 delta[B7,B10,0] <= 87.5
 PM[B7,B10,1]: c[B7,1] - c[B10,1] + 10000 delta[B7,B10,1] <= 9985
 PM[B7,B11,0]: c[B7,0] - c[B11,0] + 100 delta[B7,B11,0] <= 82
 PM[B7,B11,1]: c[B7,1] - c[B11,1] + 9994 delta[B7,B11,1] <= 9976
 PM[B7,B12,0]: c[B7,0] - c[B12,0] + 100 delta[B7,B12,0] <= 83
 PM[B7,B12,1]: c[B7,1] - c[B12,1] + 10000 delta[B7,B12,1] <= 9984
 PM[B7,B13,0]: c[B7,0] - c[B13,0] + 100 delta[B7,B13,0] <= 82.5
 PM[B7,B13,1]: c[B7,1] - c[B13,1] + 10000 delta[B7,B13,1] <= 9986
 PM[B7,B14,0]: c[B7,0] - c[B14,0] + 100 delta[B7,B14,0] <= 85.5
 PM[B7,B14,1]: c[B7,1] - c[B14,1] + 9998 delta[B7,B14,1] <= 9983.5
 PM[B7,B15,0]: c[B7,0] - c[B15,0] + 100 delta[B7,B15,0] <= 84.5
 PM[B7,B15,1]: c[B7,1] - c[B15,1] + 10000 delta[B7,B15,1] <= 9984
 PM[B7,B16,0]: c[B7,0] - c[B16,0] + 100 delta[B7,B16,0] <= 86
 PM[B7,B16,1]: c[B7,1] - c[B16,1] + 9998 delta[B7,B16,1] <= 9984
 PM[B7,B17,0]: c[B7,0] - c[B17,0] + 100 delta[B7,B17,0] <= 85.5
 PM[B7,B17,1]: c[B7,1] - c[B17,1] + 9994 delta[B7,B17,1] <= 9968.5
 PM[B7,B18,0]: c[B7,0] - c[B18,0] + 100 delta[B7,B18,0] <= 66.5
 PM[B7,B18,1]: c[B7,1] - c[B18,1] + 10000 delta[B7,B18,1] <= 9986.5
 PM[B7,B19,0]: c[B7,0] - c[B19,0] + 100 delta[B7,B19,0] <= 86
 PM[B7,B19,1]: c[B7,1] - c[B19,1] + 10000 delta[B7,B19,1] <= 9985
 PM[B7,B20,0]: c[B7,0] - c[B20,0] + 100 delta[B7,B20,0] <= 82.5
 PM[B7,B20,1]: c[B7,1] - c[B20,1] + 10000 delta[B7,B20,1] <= 9985
 PM[B7,B21,0]: c[B7,0] - c[B21,0] + 100 delta[B7,B21,0] <= 66.5
 PM[B7,B21,1]: c[B7,1] - c[B21,1] + 9998 delta[B7,B21,1] <= 9984
 PM[B7,B22,0]: c[B7,0] - c[B22,0] + 100 delta[B7,B22,0] <= 81
 PM[B7,B22,1]: c[B7,1] - c[B22,1] + 10000 delta[B7,B22,1] <= 9983
 PM[B7,B23,0]: c[B7,0] - c[B23,0] + 100 delta[B7,B23,0] <= 84.5
 PM[B7,B23,1]: c[B7,1] - c[B23,1] + 10000 delta[B7,B23,1] <= 9982
 PM[B7,B24,0]: c[B7,0] - c[B24,0] + 100 delta[B7,B24,0] <= 84.5
 PM[B7,B24,1]: c[B7,1] - c[B24,1] + 10000 delta[B7,B24,1] <= 9981.5
 PM[B7,B25,0]: c[B7,0] - c[B25,0] + 100 delta[B7,B25,0] <= 73.5
 PM[B7,B25,1]: c[B7,1] - c[B25,1] + 9999 delta[B7,B25,1] <= 9984.5
 PM[B7,B26,0]: c[B7,0] - c[B26,0] + 100 delta[B7,B26,0] <= 86
 PM[B7,B26,1]: c[B7,1] - c[B26,1] + 10000 delta[B7,B26,1] <= 9986.5
 PM[B7,B27,0]: c[B7,0] - c[B27,0] + 100 delta[B7,B27,0] <= 81.5
 PM[B7,B27,1]: c[B7,1] - c[B27,1] + 9997 delta[B7,B27,1] <= 9977.5
 PM[B7,B28,0]: c[B7,0] - c[B28,0] + 100 delta[B7,B28,0] <= 73
 PM[B7,B28,1]: c[B7,1] - c[B28,1] + 9997 delta[B7,B28,1] <= 9983.5
 PM[B7,B29,0]: c[B7,0] - c[B29,0] + 100 delta[B7,B29,0] <= 84.5
 PM[B7,B29,1]: c[B7,1] - c[B29,1] + 10000 delta[B7,B29,1] <= 9982.5
 PM[B7,B30,0]: c[B7,0] - c[B30,0] + 100 delta[B7,B30,0] <= 87.5
 PM[B7,B30,1]: c[B7,1] - c[B30,1] + 9994 delta[B7,B30,1] <= 9960
 PM[B7,B31,0]: c[B7,0] - c[B31,0] + 100 delta[B7,B31,0] <= 76.5
 PM[B7,B31,1]: c[B7,1] - c[B31,1] + 9999 delta[B7,B31,1] <= 9980.5
 PM[B7,B32,0]: c[B7,0] - c[B32,0] + 100 delta[B7,B32,0] <= 86.5
 PM[B7,B32,1]: c[B7,1] - c[B32,1] + 10000 delta[B7,B32,1] <= 9985.5
 PM[B7,B33,0]: c[B7,0] - c[B33,0] + 100 delta[B7,B33,0] <= 85
 PM[B7,B33,1]: c[B7,1] - c[B33,1] + 10000 delta[B7,B33,1] <= 9987
 PM[B7,B34,0]: c[B7,0] - c[B34,0] + 100 delta[B7,B34,0] <= 90
 PM[B7,B34,1]: c[B7,1] - c[B34,1] + 10000 delta[B7,B34,1] <= 9983.5
 PM[B8,B0,0]: - c[B0,0] + c[B8,0] + 97 delta[B8,B0,0] <= 84
 PM[B8,B0,1]: - c[B0,1] + c[B8,1] + 9998 delta[B8,B0,1] <= 9973.5
 PM[B8,B1,0]: - c[B1,0] + c[B8,0] + 100 delta[B8,B1,0] <= 85.5
 PM[B8,B1,1]: - c[B1,1] + c[B8,1] + 10000 delta[B8,B1,1] <= 9983.5
 PM[B8,B2,0]: - c[B2,0] + c[B8,0] + 100 delta[B8,B2,0] <= 90.5
 PM[B8,B2,1]: - c[B2,1] + c[B8,1] + 9998 delta[B8,B2,1] <= 9975.5
 PM[B8,B3,0]: - c[B3,0] + c[B8,0] + 100 delta[B8,B3,0] <= 85.5
 PM[B8,B3,1]: - c[B3,1] + c[B8,1] + 9998 delta[B8,B3,1] <= 9980.5
 PM[B8,B4,0]: - c[B4,0] + c[B8,0] + 100 delta[B8,B4,0] <= 90.5
 PM[B8,B4,1]: - c[B4,1] + c[B8,1] + 9998 delta[B8,B4,1] <= 9978.5
 PM[B8,B5,0]: - c[B5,0] + c[B8,0] + 97 delta[B8,B5,0] <= 87.5
 PM[B8,B5,1]: - c[B5,1] + c[B8,1] + 9998 delta[B8,B5,1] <= 9985
 PM[B8,B6,0]: - c[B6,0] + c[B8,0] + 97 delta[B8,B6,0] <= 80
 PM[B8,B6,1]: - c[B6,1] + c[B8,1] + 9998 delta[B8,B6,1] <= 9981
 PM[B8,B7,0]: - c[B7,0] + c[B8,0] + 97 delta[B8,B7,0] <= 78
 PM[B8,B7,1]: - c[B7,1] + c[B8,1] + 9998 delta[B8,B7,1] <= 9980
 PM[B8,B9,0]: c[B8,0] - c[B9,0] + 97 delta[B8,B9,0] <= 81
 PM[B8,B9,1]: c[B8,1] - c[B9,1] + 9998 delta[B8,B9,1] <= 9980.5
 PM[B8,B10,0]: c[B8,0] - c[B10,0] + 100 delta[B8,B10,0] <= 88.5
 PM[B8,B10,1]: c[B8,1] - c[B10,1] + 10000 delta[B8,B10,1] <= 9985
 PM[B8,B11,0]: c[B8,0] - c[B11,0] + 97 delta[B8,B11,0] <= 83
 PM[B8,B11,1]: c[B8,1] - c[B11,1] + 9998 delta[B8,B11,1] <= 9976
 PM[B8,B12,0]: c[B8,0] - c[B12,0] + 100 delta[B8,B12,0] <= 84
 PM[B8,B12,1]: c[B8,1] - c[B12,1] + 10000 delta[B8,B12,1] <= 9984
 PM[B8,B13,0]: c[B8,0] - c[B13,0] + 97 delta[B8,B13,0] <= 83.5
 PM[B8,B13,1]: c[B8,1] - c[B13,1] + 10000 delta[B8,B13,1] <= 9986
 PM[B8,B14,0]: c[B8,0] - c[B14,0] + 100 delta[B8,B14,0] <= 86.5
 PM[B8,B14,1]: c[B8,1] - c[B14,1] + 9998 delta[B8,B14,1] <= 9983.5
 PM[B8,B15,0]: c[B8,0] - c[B15,0] + 100 delta[B8,B15,0] <= 85.5
 PM[B8,B15,1]: c[B8,1] - c[B15,1] + 10000 delta[B8,B15,1] <= 9984
 PM[B8,B16,0]: c[B8,0] - c[B16,0] + 100 delta[B8,B16,0] <= 87
 PM[B8,B16,1]: c[B8,1] - c[B16,1] + 9998 delta[B8,B16,1] <= 9984
 PM[B8,B17,0]: c[B8,0] - c[B17,0] + 100 delta[B8,B17,0] <= 86.5
 PM[B8,B17,1]: c[B8,1] - c[B17,1] + 9998 delta[B8,B17,1] <= 9968.5
 PM[B8,B18,0]: c[B8,0] - c[B18,0] + 97 delta[B8,B18,0] <= 67.5
 PM[B8,B18,1]: c[B8,1] - c[B18,1] + 10000 delta[B8,B18,1] <= 9986.5
 PM[B8,B19,0]: c[B8,0] - c[B19,0] + 100 delta[B8,B19,0] <= 87
 PM[B8,B19,1]: c[B8,1] - c[B19,1] + 10000 delta[B8,B19,1] <= 9985
 PM[B8,B20,0]: c[B8,0] - c[B20,0] + 98 delta[B8,B20,0] <= 83.5
 PM[B8,B20,1]: c[B8,1] - c[B20,1] + 10000 delta[B8,B20,1] <= 9985
 PM[B8,B21,0]: c[B8,0] - c[B21,0] + 97 delta[B8,B21,0] <= 67.5
 PM[B8,B21,1]: c[B8,1] - c[B21,1] + 9998 delta[B8,B21,1] <= 9984
 PM[B8,B22,0]: c[B8,0] - c[B22,0] + 97 delta[B8,B22,0] <= 82
 PM[B8,B22,1]: c[B8,1] - c[B22,1] + 10000 delta[B8,B22,1] <= 9983
 PM[B8,B23,0]: c[B8,0] - c[B23,0] + 97 delta[B8,B23,0] <= 85.5
 PM[B8,B23,1]: c[B8,1] - c[B23,1] + 10000 delta[B8,B23,1] <= 9982
 PM[B8,B24,0]: c[B8,0] - c[B24,0] + 97 delta[B8,B24,0] <= 85.5
 PM[B8,B24,1]: c[B8,1] - c[B24,1] + 10000 delta[B8,B24,1] <= 9981.5
 PM[B8,B25,0]: c[B8,0] - c[B25,0] + 97 delta[B8,B25,0] <= 74.5
 PM[B8,B25,1]: c[B8,1] - c[B25,1] + 9999 delta[B8,B25,1] <= 9984.5
 PM[B8,B26,0]: c[B8,0] - c[B26,0] + 97 delta[B8,B26,0] <= 87
 PM[B8,B26,1]: c[B8,1] - c[B26,1] + 10000 delta[B8,B26,1] <= 9986.5
 PM[B8,B27,0]: c[B8,0] - c[B27,0] + 97 delta[B8,B27,0] <= 82.5
 PM[B8,B27,1]: c[B8,1] - c[B27,1] + 9998 delta[B8,B27,1] <= 9977.5
 PM[B8,B28,0]: c[B8,0] - c[B28,0] + 97 delta[B8,B28,0] <= 74
 PM[B8,B28,1]: c[B8,1] - c[B28,1] + 9998 delta[B8,B28,1] <= 9983.5
 PM[B8,B29,0]: c[B8,0] - c[B29,0] + 100 delta[B8,B29,0] <= 85.5
 PM[B8,B29,1]: c[B8,1] - c[B29,1] + 10000 delta[B8,B29,1] <= 9982.5
 PM[B8,B30,0]: c[B8,0] - c[B30,0] + 98 delta[B8,B30,0] <= 88.5
 PM[B8,B30,1]: c[B8,1] - c[B30,1] + 9998 delta[B8,B30,1] <= 9960
 PM[B8,B31,0]: c[B8,0] - c[B31,0] + 97 delta[B8,B31,0] <= 77.5
 PM[B8,B31,1]: c[B8,1] - c[B31,1] + 9999 delta[B8,B31,1] <= 9980.5
 PM[B8,B32,0]: c[B8,0] - c[B32,0] + 100 delta[B8,B32,0] <= 87.5
 PM[B8,B32,1]: c[B8,1] - c[B32,1] + 10000 delta[B8,B32,1] <= 9985.5
 PM[B8,B33,0]: c[B8,0] - c[B33,0] + 100 delta[B8,B33,0] <= 86
 PM[B8,B33,1]: c[B8,1] - c[B33,1] + 10000 delta[B8,B33,1] <= 9987
 PM[B8,B34,0]: c[B8,0] - c[B34,0] + 100 delta[B8,B34,0] <= 91
 PM[B8,B34,1]: c[B8,1] - c[B34,1] + 10000 delta[B8,B34,1] <= 9983.5
 PM[B9,B0,0]: - c[B0,0] + c[B9,0] + 95 delta[B9,B0,0] <= 74
 PM[B9,B0,1]: - c[B0,1] + c[B9,1] + 9993 delta[B9,B0,1] <= 9972
 PM[B9,B1,0]: - c[B1,0] + c[B9,0] + 100 delta[B9,B1,0] <= 75.5
 PM[B9,B1,1]: - c[B1,1] + c[B9,1] + 10000 delta[B9,B1,1] <= 9982
 PM[B9,B2,0]: - c[B2,0] + c[B9,0] + 100 delta[B9,B2,0] <= 80.5
 PM[B9,B2,1]: - c[B2,1] + c[B9,1] + 9993 delta[B9,B2,1] <= 9974
 PM[B9,B3,0]: - c[B3,0] + c[B9,0] + 100 delta[B9,B3,0] <= 75.5
 PM[B9,B3,1]: - c[B3,1] + c[B9,1] + 9997 delta[B9,B3,1] <= 9979
 PM[B9,B4,0]: - c[B4,0] + c[B9,0] + 100 delta[B9,B4,0] <= 80.5
 PM[B9,B4,1]: - c[B4,1] + c[B9,1] + 9995 delta[B9,B4,1] <= 9977
 PM[B9,B5,0]: - c[B5,0] + c[B9,0] + 97 delta[B9,B5,0] <= 77.5
 PM[B9,B5,1]: - c[B5,1] + c[B9,1] + 9998 delta[B9,B5,1] <= 9983.5
 PM[B9,B6,0]: - c[B6,0] + c[B9,0] + 94 delta[B9,B6,0] <= 70
 PM[B9,B6,1]: - c[B6,1] + c[B9,1] + 9995 delta[B9,B6,1] <= 9979.5
 PM[B9,B7,0]: - c[B7,0] + c[B9,0] + 92 delta[B9,B7,0] <= 68
 PM[B9,B7,1]: - c[B7,1] + c[B9,1] + 9994 delta[B9,B7,1] <= 9978.5
 PM[B9,B8,0]: - c[B8,0] + c[B9,0] + 100 delta[B9,B8,0] <= 80
 PM[B9,B8,1]: - c[B8,1] + c[B9,1] + 10000 delta[B9,B8,1] <= 9980.5
 PM[B9,B10,0]: c[B9,0] - c[B10,0] + 100 delta[B9,B10,0] <= 78.5
 PM[B9,B10,1]: c[B9,1] - c[B10,1] + 10000 delta[B9,B10,1] <= 9983.5
 PM[B9,B11,0]: c[B9,0] - c[B11,0] + 94 delta[B9,B11,0] <= 73
 PM[B9,B11,1]: c[B9,1] - c[B11,1] + 9993 delta[B9,B11,1] <= 9974.5
 PM[B9,B12,0]: c[B9,0] - c[B12,0] + 100 delta[B9,B12,0] <= 74
 PM[B9,B12,1]: c[B9,1] - c[B12,1] + 10000 delta[B9,B12,1] <= 9982.5
 PM[B9,B13,0]: c[B9,0] - c[B13,0] + 97 delta[B9,B13,0] <= 73.5
 PM[B9,B13,1]: c[B9,1] - c[B13,1] + 10000 delta[B9,B13,1] <= 9984.5
 PM[B9,B14,0]: c[B9,0] - c[B14,0] + 100 delta[B9,B14,0] <= 76.5
 PM[B9,B14,1]: c[B9,1] - c[B14,1] + 9998 delta[B9,B14,1] <= 9982
 PM[B9,B15,0]: c[B9,0] - c[B15,0] + 100 delta[B9,B15,0] <= 75.5
 PM[B9,B15,1]: c[B9,1] - c[B15,1] + 10000 delta[B9,B15,1] <= 9982.5
 PM[B9,B16,0]: c[B9,0] - c[B16,0] + 100 delta[B9,B16,0] <= 77
 PM[B9,B16,1]: c[B9,1] - c[B16,1] + 9998 delta[B9,B16,1] <= 9982.5
 PM[B9,B17,0]: c[B9,0] - c[B17,0] + 100 delta[B9,B17,0] <= 76.5
 PM[B9,B17,1]: c[B9,1] - c[B17,1] + 9993 delta[B9,B17,1] <= 9967
 PM[B9,B18,0]: c[B9,0] - c[B18,0] + 89 delta[B9,B18,0] <= 57.5
 PM[B9,B18,1]: c[B9,1] - c[B18,1] + 10000 delta[B9,B18,1] <= 9985
 PM[B9,B19,0]: c[B9,0] - c[B19,0] + 100 delta[B9,B19,0] <= 77
 PM[B9,B19,1]: c[B9,1] - c[B19,1] + 10000 delta[B9,B19,1] <= 9983.5
 PM[B9,B20,0]: c[B9,0] - c[B20,0] + 98 delta[B9,B20,0] <= 73.5
 PM[B9,B20,1]: c[B9,1] - c[B20,1] + 10000 delta[B9,B20,1] <= 9983.5
 PM[B9,B21,0]: c[B9,0] - c[B21,0] + 89 delta[B9,B21,0] <= 57.5
 PM[B9,B21,1]: c[B9,1] - c[B21,1] + 9998 delta[B9,B21,1] <= 9982.5
 PM[B9,B22,0]: c[B9,0] - c[B22,0] + 93 delta[B9,B22,0] <= 72
 PM[B9,B22,1]: c[B9,1] - c[B22,1] + 10000 delta[B9,B22,1] <= 9981.5
 PM[B9,B23,0]: c[B9,0] - c[B23,0] + 96 delta[B9,B23,0] <= 75.5
 PM[B9,B23,1]: c[B9,1] - c[B23,1] + 10000 delta[B9,B23,1] <= 9980.5
 PM[B9,B24,0]: c[B9,0] - c[B24,0] + 97 delta[B9,B24,0] <= 75.5
 PM[B9,B24,1]: c[B9,1] - c[B24,1] + 10000 delta[B9,B24,1] <= 9980
 PM[B9,B25,0]: c[B9,0] - c[B25,0] + 89 delta[B9,B25,0] <= 64.5
 PM[B9,B25,1]: c[B9,1] - c[B25,1] + 9999 delta[B9,B25,1] <= 9983
 PM[B9,B26,0]: c[B9,0] - c[B26,0] + 97 delta[B9,B26,0] <= 77
 PM[B9,B26,1]: c[B9,1] - c[B26,1] + 10000 delta[B9,B26,1] <= 9985
 PM[B9,B27,0]: c[B9,0] - c[B27,0] + 93 delta[B9,B27,0] <= 72.5
 PM[B9,B27,1]: c[B9,1] - c[B27,1] + 9997 delta[B9,B27,1] <= 9976
 PM[B9,B28,0]: c[B9,0] - c[B28,0] + 89 delta[B9,B28,0] <= 64
 PM[B9,B28,1]: c[B9,1] - c[B28,1] + 9997 delta[B9,B28,1] <= 9982
 PM[B9,B29,0]: c[B9,0] - c[B29,0] + 100 delta[B9,B29,0] <= 75.5
 PM[B9,B29,1]: c[B9,1] - c[B29,1] + 10000 delta[B9,B29,1] <= 9981
 PM[B9,B30,0]: c[B9,0] - c[B30,0] + 98 delta[B9,B30,0] <= 78.5
 PM[B9,B30,1]: c[B9,1] - c[B30,1] + 9993 delta[B9,B30,1] <= 9958.5
 PM[B9,B31,0]: c[B9,0] - c[B31,0] + 93 delta[B9,B31,0] <= 67.5
 PM[B9,B31,1]: c[B9,1] - c[B31,1] + 9999 delta[B9,B31,1] <= 9979
 PM[B9,B32,0]: c[B9,0] - c[B32,0] + 100 delta[B9,B32,0] <= 77.5
 PM[B9,B32,1]: c[B9,1] - c[B32,1] + 10000 delta[B9,B32,1] <= 9984
 PM[B9,B33,0]: c[B9,0] - c[B33,0] + 100 delta[B9,B33,0] <= 76
 PM[B9,B33,1]: c[B9,1] - c[B33,1] + 10000 delta[B9,B33,1] <= 9985.5
 PM[B9,B34,0]: c[B9,0] - c[B34,0] + 100 delta[B9,B34,0] <= 81
 PM[B9,B34,1]: c[B9,1] - c[B34,1] + 10000 delta[B9,B34,1] <= 9982
 PM[B10,B0,0]: - c[B0,0] + c[B10,0] + 95 delta[B10,B0,0] <= 80.5
 PM[B10,B0,1]: - c[B0,1] + c[B10,1] + 9994 delta[B10,B0,1] <= 9972.5
 PM[B10,B1,0]: - c[B1,0] + c[B10,0] + 100 delta[B10,B1,0] <= 82
 PM[B10,B1,1]: - c[B1,1] + c[B10,1] + 10000 delta[B10,B1,1] <= 9982.5
 PM[B10,B2,0]: - c[B2,0] + c[B10,0] + 100 delta[B10,B2,0] <= 87
 PM[B10,B2,1]: - c[B2,1] + c[B10,1] + 9994 delta[B10,B2,1] <= 9974.5
 PM[B10,B3,0]: - c[B3,0] + c[B10,0] + 100 delta[B10,B3,0] <= 82
 PM[B10,B3,1]: - c[B3,1] + c[B10,1] + 9997 delta[B10,B3,1] <= 9979.5
 PM[B10,B4,0]: - c[B4,0] + c[B10,0] + 100 delta[B10,B4,0] <= 87
 PM[B10,B4,1]: - c[B4,1] + c[B10,1] + 9995 delta[B10,B4,1] <= 9977.5
 PM[B10,B5,0]: - c[B5,0] + c[B10,0] + 97 delta[B10,B5,0] <= 84
 PM[B10,B5,1]: - c[B5,1] + c[B10,1] + 9998 delta[B10,B5,1] <= 9984
 PM[B10,B6,0]: - c[B6,0] + c[B10,0] + 95 delta[B10,B6,0] <= 76.5
 PM[B10,B6,1]: - c[B6,1] + c[B10,1] + 9995 delta[B10,B6,1] <= 9980
 PM[B10,B7,0]: - c[B7,0] + c[B10,0] + 95 delta[B10,B7,0] <= 74.5
 PM[B10,B7,1]: - c[B7,1] + c[B10,1] + 9994 delta[B10,B7,1] <= 9979
 PM[B10,B8,0]: - c[B8,0] + c[B10,0] + 100 delta[B10,B8,0] <= 86.5
 PM[B10,B8,1]: - c[B8,1] + c[B10,1] + 10000 delta[B10,B8,1] <= 9981
 PM[B10,B9,0]: - c[B9,0] + c[B10,0] + 95 delta[B10,B9,0] <= 77.5
 PM[B10,B9,1]: - c[B9,1] + c[B10,1] + 9995 delta[B10,B9,1] <= 9979.5
 PM[B10,B11,0]: c[B10,0] - c[B11,0] + 95 delta[B10,B11,0] <= 79.5
 PM[B10,B11,1]: c[B10,1] - c[B11,1] + 9994 delta[B10,B11,1] <= 9975
 PM[B10,B12,0]: c[B10,0] - c[B12,0] + 100 delta[B10,B12,0] <= 80.5
 PM[B10,B12,1]: c[B10,1] - c[B12,1] + 10000 delta[B10,B12,1] <= 9983
 PM[B10,B13,0]: c[B10,0] - c[B13,0] + 97 delta[B10,B13,0] <= 80
 PM[B10,B13,1]: c[B10,1] - c[B13,1] + 10000 delta[B10,B13,1] <= 9985
 PM[B10,B14,0]: c[B10,0] - c[B14,0] + 100 delta[B10,B14,0] <= 83
 PM[B10,B14,1]: c[B10,1] - c[B14,1] + 9998 delta[B10,B14,1] <= 9982.5
 PM[B10,B15,0]: c[B10,0] - c[B15,0] + 100 delta[B10,B15,0] <= 82
 PM[B10,B15,1]: c[B10,1] - c[B15,1] + 10000 delta[B10,B15,1] <= 9983
 PM[B10,B16,0]: c[B10,0] - c[B16,0] + 100 delta[B10,B16,0] <= 83.5
 PM[B10,B16,1]: c[B10,1] - c[B16,1] + 9998 delta[B10,B16,1] <= 9983
 PM[B10,B17,0]: c[B10,0] - c[B17,0] + 100 delta[B10,B17,0] <= 83
 PM[B10,B17,1]: c[B10,1] - c[B17,1] + 9994 delta[B10,B17,1] <= 9967.5
 PM[B10,B18,0]: c[B10,0] - c[B18,0] + 95 delta[B10,B18,0] <= 64
 PM[B10,B18,1]: c[B10,1] - c[B18,1] + 10000 delta[B10,B18,1] <= 9985.5
 PM[B10,B19,0]: c[B10,0] - c[B19,0] + 100 delta[B10,B19,0] <= 83.5
 PM[B10,B19,1]: c[B10,1] - c[B19,1] + 10000 delta[B10,B19,1] <= 9984
 PM[B10,B20,0]: c[B10,0] - c[B20,0] + 98 delta[B10,B20,0] <= 80
 PM[B10,B20,1]: c[B10,1] - c[B20,1] + 10000 delta[B10,B20,1] <= 9984
 PM[B10,B21,0]: c[B10,0] - c[B21,0] + 95 delta[B10,B21,0] <= 64
 PM[B10,B21,1]: c[B10,1] - c[B21,1] + 9998 delta[B10,B21,1] <= 9983
 PM[B10,B22,0]: c[B10,0] - c[B22,0] + 95 delta[B10,B22,0] <= 78.5
 PM[B10,B22,1]: c[B10,1] - c[B22,1] + 10000 delta[B10,B22,1] <= 9982
 PM[B10,B23,0]: c[B10,0] - c[B23,0] + 96 delta[B10,B23,0] <= 82
 PM[B10,B23,1]: c[B10,1] - c[B23,1] + 10000 delta[B10,B23,1] <= 9981
 PM[B10,B24,0]: c[B10,0] - c[B24,0] + 97 delta[B10,B24,0] <= 82
 PM[B10,B24,1]: c[B10,1] - c[B24,1] + 10000 delta[B10,B24,1] <= 9980.5
 PM[B10,B25,0]: c[B10,0] - c[B25,0] + 95 delta[B10,B25,0] <= 71
 PM[B10,B25,1]: c[B10,1] - c[B25,1] + 9999 delta[B10,B25,1] <= 9983.5
 PM[B10,B26,0]: c[B10,0] - c[B26,0] + 97 delta[B10,B26,0] <= 83.5
 PM[B10,B26,1]: c[B10,1] - c[B26,1] + 10000 delta[B10,B26,1] <= 9985.5
 PM[B10,B27,0]: c[B10,0] - c[B27,0] + 95 delta[B10,B27,0] <= 79
 PM[B10,B27,1]: c[B10,1] - c[B27,1] + 9997 delta[B10,B27,1] <= 9976.5
 PM[B10,B28,0]: c[B10,0] - c[B28,0] + 95 delta[B10,B28,0] <= 70.5
 PM[B10,B28,1]: c[B10,1] - c[B28,1] + 9997 delta[B10,B28,1] <= 9982.5
 PM[B10,B29,0]: c[B10,0] - c[B29,0] + 100 delta[B10,B29,0] <= 82
 PM[B10,B29,1]: c[B10,1] - c[B29,1] + 10000 delta[B10,B29,1] <= 9981.5
 PM[B10,B30,0]: c[B10,0] - c[B30,0] + 98 delta[B10,B30,0] <= 85
 PM[B10,B30,1]: c[B10,1] - c[B30,1] + 9994 delta[B10,B30,1] <= 9959
 PM[B10,B31,0]: c[B10,0] - c[B31,0] + 95 delta[B10,B31,0] <= 74
 PM[B10,B31,1]: c[B10,1] - c[B31,1] + 9999 delta[B10,B31,1] <= 9979.5
 PM[B10,B32,0]: c[B10,0] - c[B32,0] + 100 delta[B10,B32,0] <= 84
 PM[B10,B32,1]: c[B10,1] - c[B32,1] + 10000 delta[B10,B32,1] <= 9984.5
 PM[B10,B33,0]: c[B10,0] - c[B33,0] + 100 delta[B10,B33,0] <= 82.5
 PM[B10,B33,1]: c[B10,1] - c[B33,1] + 10000 delta[B10,B33,1] <= 9986
 PM[B10,B34,0]: c[B10,0] - c[B34,0] + 100 delta[B10,B34,0] <= 87.5
 PM[B10,B34,1]: c[B10,1] - c[B34,1] + 10000 delta[B10,B34,1] <= 9982.5
 PM[B11,B0,0]: - c[B0,0] + c[B11,0] + 100 delta[B11,B0,0] <= 86
 PM[B11,B0,1]: - c[B0,1] + c[B11,1] + 9997 delta[B11,B0,1] <= 9975.5
 PM[B11,B1,0]: - c[B1,0] + c[B11,0] + 100 delta[B11,B1,0] <= 87.5
 PM[B11,B1,1]: - c[B1,1] + c[B11,1] + 10000 delta[B11,B1,1] <= 9985.5
 PM[B11,B2,0]: - c[B2,0] + c[B11,0] + 100 delta[B11,B2,0] <= 92.5
 PM[B11,B2,1]: - c[B2,1] + c[B11,1] + 9997 delta[B11,B2,1] <= 9977.5
 PM[B11,B3,0]: - c[B3,0] + c[B11,0] + 100 delta[B11,B3,0] <= 87.5
 PM[B11,B3,1]: - c[B3,1] + c[B11,1] + 9997 delta[B11,B3,1] <= 9982.5
 PM[B11,B4,0]: - c[B4,0] + c[B11,0] + 100 delta[B11,B4,0] <= 92.5
 PM[B11,B4,1]: - c[B4,1] + c[B11,1] + 9997 delta[B11,B4,1] <= 9980.5
 PM[B11,B5,0]: - c[B5,0] + c[B11,0] + 100 delta[B11,B5,0] <= 89.5
 PM[B11,B5,1]: - c[B5,1] + c[B11,1] + 9998 delta[B11,B5,1] <= 9987
 PM[B11,B6,0]: - c[B6,0] + c[B11,0] + 100 delta[B11,B6,0] <= 82
 PM[B11,B6,1]: - c[B6,1] + c[B11,1] + 9997 delta[B11,B6,1] <= 9983
 PM[B11,B7,0]: - c[B7,0] + c[B11,0] + 100 delta[B11,B7,0] <= 80
 PM[B11,B7,1]: - c[B7,1] + c[B11,1] + 9997 delta[B11,B7,1] <= 9982
 PM[B11,B8,0]: - c[B8,0] + c[B11,0] + 100 delta[B11,B8,0] <= 92
 PM[B11,B8,1]: - c[B8,1] + c[B11,1] + 10000 delta[B11,B8,1] <= 9984
 PM[B11,B9,0]: - c[B9,0] + c[B11,0] + 100 delta[B11,B9,0] <= 83
 PM[B11,B9,1]: - c[B9,1] + c[B11,1] + 9997 delta[B11,B9,1] <= 9982.5
 PM[B11,B10,0]: - c[B10,0] + c[B11,0] + 100 delta[B11,B10,0] <= 90.5
 PM[B11,B10,1]: - c[B10,1] + c[B11,1] + 10000 delta[B11,B10,1] <= 9987
 PM[B11,B12,0]: c[B11,0] - c[B12,0] + 100 delta[B11,B12,0] <= 86
 PM[B11,B12,1]: c[B11,1] - c[B12,1] + 10000 delta[B11,B12,1] <= 9986
 PM[B11,B13,0]: c[B11,0] - c[B13,0] + 100 delta[B11,B13,0] <= 85.5
 PM[B11,B13,1]: c[B11,1] - c[B13,1] + 10000 delta[B11,B13,1] <= 9988
 PM[B11,B14,0]: c[B11,0] - c[B14,0] + 100 delta[B11,B14,0] <= 88.5
 PM[B11,B14,1]: c[B11,1] - c[B14,1] + 9998 delta[B11,B14,1] <= 9985.5
 PM[B11,B15,0]: c[B11,0] - c[B15,0] + 100 delta[B11,B15,0] <= 87.5
 PM[B11,B15,1]: c[B11,1] - c[B15,1] + 10000 delta[B11,B15,1] <= 9986
 PM[B11,B16,0]: c[B11,0] - c[B16,0] + 100 delta[B11,B16,0] <= 89
 PM[B11,B16,1]: c[B11,1] - c[B16,1] + 9998 delta[B11,B16,1] <= 9986
 PM[B11,B17,0]: c[B11,0] - c[B17,0] + 100 delta[B11,B17,0] <= 88.5
 PM[B11,B17,1]: c[B11,1] - c[B17,1] + 9997 delta[B11,B17,1] <= 9970.5
 PM[B11,B18,0]: c[B11,0] - c[B18,0] + 100 delta[B11,B18,0] <= 69.5
 PM[B11,B18,1]: c[B11,1] - c[B18,1] + 10000 delta[B11,B18,1] <= 9988.5
 PM[B11,B19,0]: c[B11,0] - c[B19,0] + 100 delta[B11,B19,0] <= 89
 PM[B11,B19,1]: c[B11,1] - c[B19,1] + 10000 delta[B11,B19,1] <= 9987
 PM[B11,B20,0]: c[B11,0] - c[B20,0] + 100 delta[B11,B20,0] <= 85.5
 PM[B11,B20,1]: c[B11,1] - c[B20,1] + 10000 delta[B11,B20,1] <= 9987
 PM[B11,B21,0]: c[B11,0] - c[B21,0] + 100 delta[B11,B21,0] <= 69.5
 PM[B11,B21,1]: c[B11,1] - c[B21,1] + 9998 delta[B11,B21,1] <= 9986
 PM[B11,B22,0]: c[B11,0] - c[B22,0] + 100 delta[B11,B22,0] <= 84
 PM[B11,B22,1]: c[B11,1] - c[B22,1] + 10000 delta[B11,B22,1] <= 9985
 PM[B11,B23,0]: c[B11,0] - c[B23,0] + 100 delta[B11,B23,0] <= 87.5
 PM[B11,B23,1]: c[B11,1] - c[B23,1] + 10000 delta[B11,B23,1] <= 9984
 PM[B11,B24,0]: c[B11,0] - c[B24,0] + 100 delta[B11,B24,0] <= 87.5
 PM[B11,B24,1]: c[B11,1] - c[B24,1] + 10000 delta[B11,B24,1] <= 9983.5
 PM[B11,B25,0]: c[B11,0] - c[B25,0] + 100 delta[B11,B25,0] <= 76.5
 PM[B11,B25,1]: c[B11,1] - c[B25,1] + 9999 delta[B11,B25,1] <= 9986.5
 PM[B11,B26,0]: c[B11,0] - c[B26,0] + 100 delta[B11,B26,0] <= 89
 PM[B11,B26,1]: c[B11,1] - c[B26,1] + 10000 delta[B11,B26,1] <= 9988.5
 PM[B11,B27,0]: c[B11,0] - c[B27,0] + 100 delta[B11,B27,0] <= 84.5
 PM[B11,B27,1]: c[B11,1] - c[B27,1] + 9997 delta[B11,B27,1] <= 9979.5
 PM[B11,B28,0]: c[B11,0] - c[B28,0] + 100 delta[B11,B28,0] <= 76
 PM[B11,B28,1]: c[B11,1] - c[B28,1] + 9997 delta[B11,B28,1] <= 9985.5
 PM[B11,B29,0]: c[B11,0] - c[B29,0] + 100 delta[B11,B29,0] <= 87.5
 PM[B11,B29,1]: c[B11,1] - c[B29,1] + 10000 delta[B11,B29,1] <= 9984.5
 PM[B11,B30,0]: c[B11,0] - c[B30,0] + 100 delta[B11,B30,0] <= 90.5
 PM[B11,B30,1]: c[B11,1] - c[B30,1] + 9997 delta[B11,B30,1] <= 9962
 PM[B11,B31,0]: c[B11,0] - c[B31,0] + 100 delta[B11,B31,0] <= 79.5
 PM[B11,B31,1]: c[B11,1] - c[B31,1] + 9999 delta[B11,B31,1] <= 9982.5
 PM[B11,B32,0]: c[B11,0] - c[B32,0] + 100 delta[B11,B32,0] <= 89.5
 PM[B11,B32,1]: c[B11,1] - c[B32,1] + 10000 delta[B11,B32,1] <= 9987.5
 PM[B11,B33,0]: c[B11,0] - c[B33,0] + 100 delta[B11,B33,0] <= 88
 PM[B11,B33,1]: c[B11,1] - c[B33,1] + 10000 delta[B11,B33,1] <= 9989
 PM[B11,B34,0]: c[B11,0] - c[B34,0] + 100 delta[B11,B34,0] <= 93
 PM[B11,B34,1]: c[B11,1] - c[B34,1] + 10000 delta[B11,B34,1] <= 9985.5
 PM[B12,B0,0]: - c[B0,0] + c[B12,0] + 100 delta[B12,B0,0] <= 81
 PM[B12,B0,1]: - c[B0,1] + c[B12,1] + 9997 delta[B12,B0,1] <= 9974.5
 PM[B12,B1,0]: - c[B1,0] + c[B12,0] + 100 delta[B12,B1,0] <= 82.5
 PM[B12,B1,1]: - c[B1,1] + c[B12,1] + 10000 delta[B12,B1,1] <= 9984.5
 PM[B12,B2,0]: - c[B2,0] + c[B12,0] + 100 delta[B12,B2,0] <= 87.5
 PM[B12,B2,1]: - c[B2,1] + c[B12,1] + 9997 delta[B12,B2,1] <= 9976.5
 PM[B12,B3,0]: - c[B3,0] + c[B12,0] + 100 delta[B12,B3,0] <= 82.5
 PM[B12,B3,1]: - c[B3,1] + c[B12,1] + 9997 delta[B12,B3,1] <= 9981.5
 PM[B12,B4,0]: - c[B4,0] + c[B12,0] + 100 delta[B12,B4,0] <= 87.5
 PM[B12,B4,1]: - c[B4,1] + c[B12,1] + 9997 delta[B12,B4,1] <= 9979.5
 PM[B12,B5,0]: - c[B5,0] + c[B12,0] + 100 delta[B12,B5,0] <= 84.5
 PM[B12,B5,1]: - c[B5,1] + c[B12,1] + 9998 delta[B12,B5,1] <= 9986
 PM[B12,B6,0]: - c[B6,0] + c[B12,0] + 100 delta[B12,B6,0] <= 77
 PM[B12,B6,1]: - c[B6,1] + c[B12,1] + 9997 delta[B12,B6,1] <= 9982
 PM[B12,B7,0]: - c[B7,0] + c[B12,0] + 100 delta[B12,B7,0] <= 75
 PM[B12,B7,1]: - c[B7,1] + c[B12,1] + 9997 delta[B12,B7,1] <= 9981
 PM[B12,B8,0]: - c[B8,0] + c[B12,0] + 100 delta[B12,B8,0] <= 87
 PM[B12,B8,1]: - c[B8,1] + c[B12,1] + 10000 delta[B12,B8,1] <= 9983
 PM[B12,B9,0]: - c[B9,0] + c[B12,0] + 100 delta[B12,B9,0] <= 78
 PM[B12,B9,1]: - c[B9,1] + c[B12,1] + 9997 delta[B12,B9,1] <= 9981.5
 PM[B12,B10,0]: - c[B10,0] + c[B12,0] + 100 delta[B12,B10,0] <= 85.5
 PM[B12,B10,1]: - c[B10,1] + c[B12,1] + 10000 delta[B12,B10,1] <= 9986
 PM[B12,B11,0]: - c[B11,0] + c[B12,0] + 100 delta[B12,B11,0] <= 80
 PM[B12,B11,1]: - c[B11,1] + c[B12,1] + 9997 delta[B12,B11,1] <= 9977
 PM[B12,B13,0]: c[B12,0] - c[B13,0] + 100 delta[B12,B13,0] <= 80.5
 PM[B12,B13,1]: c[B12,1] - c[B13,1] + 10000 delta[B12,B13,1] <= 9987
 PM[B12,B14,0]: c[B12,0] - c[B14,0] + 100 delta[B12,B14,0] <= 83.5
 PM[B12,B14,1]: c[B12,1] - c[B14,1] + 9998 delta[B12,B14,1] <= 9984.5
 PM[B12,B15,0]: c[B12,0] - c[B15,0] + 100 delta[B12,B15,0] <= 82.5
 PM[B12,B15,1]: c[B12,1] - c[B15,1] + 10000 delta[B12,B15,1] <= 9985
 PM[B12,B16,0]: c[B12,0] - c[B16,0] + 100 delta[B12,B16,0] <= 84
 PM[B12,B16,1]: c[B12,1] - c[B16,1] + 9998 delta[B12,B16,1] <= 9985
 PM[B12,B17,0]: c[B12,0] - c[B17,0] + 100 delta[B12,B17,0] <= 83.5
 PM[B12,B17,1]: c[B12,1] - c[B17,1] + 9997 delta[B12,B17,1] <= 9969.5
 PM[B12,B18,0]: c[B12,0] - c[B18,0] + 100 delta[B12,B18,0] <= 64.5
 PM[B12,B18,1]: c[B12,1] - c[B18,1] + 10000 delta[B12,B18,1] <= 9987.5
 PM[B12,B19,0]: c[B12,0] - c[B19,0] + 100 delta[B12,B19,0] <= 84
 PM[B12,B19,1]: c[B12,1] - c[B19,1] + 10000 delta[B12,B19,1] <= 9986
 PM[B12,B20,0]: c[B12,0] - c[B20,0] + 100 delta[B12,B20,0] <= 80.5
 PM[B12,B20,1]: c[B12,1] - c[B20,1] + 10000 delta[B12,B20,1] <= 9986
 PM[B12,B21,0]: c[B12,0] - c[B21,0] + 100 delta[B12,B21,0] <= 64.5
 PM[B12,B21,1]: c[B12,1] - c[B21,1] + 9998 delta[B12,B21,1] <= 9985
 PM[B12,B22,0]: c[B12,0] - c[B22,0] + 100 delta[B12,B22,0] <= 79
 PM[B12,B22,1]: c[B12,1] - c[B22,1] + 10000 delta[B12,B22,1] <= 9984
 PM[B12,B23,0]: c[B12,0] - c[B23,0] + 100 delta[B12,B23,0] <= 82.5
 PM[B12,B23,1]: c[B12,1] - c[B23,1] + 10000 delta[B12,B23,1] <= 9983
 PM[B12,B24,0]: c[B12,0] - c[B24,0] + 100 delta[B12,B24,0] <= 82.5
 PM[B12,B24,1]: c[B12,1] - c[B24,1] + 10000 delta[B12,B24,1] <= 9982.5
 PM[B12,B25,0]: c[B12,0] - c[B25,0] + 100 delta[B12,B25,0] <= 71.5
 PM[B12,B25,1]: c[B12,1] - c[B25,1] + 9999 delta[B12,B25,1] <= 9985.5
 PM[B12,B26,0]: c[B12,0] - c[B26,0] + 100 delta[B12,B26,0] <= 84
 PM[B12,B26,1]: c[B12,1] - c[B26,1] + 10000 delta[B12,B26,1] <= 9987.5
 PM[B12,B27,0]: c[B12,0] - c[B27,0] + 100 delta[B12,B27,0] <= 79.5
 PM[B12,B27,1]: c[B12,1] - c[B27,1] + 9997 delta[B12,B27,1] <= 9978.5
 PM[B12,B28,0]: c[B12,0] - c[B28,0] + 100 delta[B12,B28,0] <= 71
 PM[B12,B28,1]: c[B12,1] - c[B28,1] + 9997 delta[B12,B28,1] <= 9984.5
 PM[B12,B29,0]: c[B12,0] - c[B29,0] + 100 delta[B12,B29,0] <= 82.5
 PM[B12,B29,1]: c[B12,1] - c[B29,1] + 10000 delta[B12,B29,1] <= 9983.5
 PM[B12,B30,0]: c[B12,0] - c[B30,0] + 100 delta[B12,B30,0] <= 85.5
 PM[B12,B30,1]: c[B12,1] - c[B30,1] + 9997 delta[B12,B30,1] <= 9961
 PM[B12,B31,0]: c[B12,0] - c[B31,0] + 100 delta[B12,B31,0] <= 74.5
 PM[B12,B31,1]: c[B12,1] - c[B31,1] + 9999 delta[B12,B31,1] <= 9981.5
 PM[B12,B32,0]: c[B12,0] - c[B32,0] + 100 delta[B12,B32,0] <= 84.5
 PM[B12,B32,1]: c[B12,1] - c[B32,1] + 10000 delta[B12,B32,1] <= 9986.5
 PM[B12,B33,0]: c[B12,0] - c[B33,0] + 100 delta[B12,B33,0] <= 83
 PM[B12,B33,1]: c[B12,1] - c[B33,1] + 10000 delta[B12,B33,1] <= 9988
 PM[B12,B34,0]: c[B12,0] - c[B34,0] + 100 delta[B12,B34,0] <= 88
 PM[B12,B34,1]: c[B12,1] - c[B34,1] + 10000 delta[B12,B34,1] <= 9984.5
 PM[B13,B0,0]: - c[B0,0] + c[B13,0] + 95 delta[B13,B0,0] <= 70.5
 PM[B13,B0,1]: - c[B0,1] + c[B13,1] + 9999 delta[B13,B0,1] <= 9978.5
 PM[B13,B1,0]: - c[B1,0] + c[B13,0] + 100 delta[B13,B1,0] <= 72
 PM[B13,B1,1]: - c[B1,1] + c[B13,1] + 10000 delta[B13,B1,1] <= 9988.5
 PM[B13,B2,0]: - c[B2,0] + c[B13,0] + 100 delta[B13,B2,0] <= 77
 PM[B13,B2,1]: - c[B2,1] + c[B13,1] + 9999 delta[B13,B2,1] <= 9980.5
 PM[B13,B3,0]: - c[B3,0] + c[B13,0] + 100 delta[B13,B3,0] <= 72
 PM[B13,B3,1]: - c[B3,1] + c[B13,1] + 9999 delta[B13,B3,1] <= 9985.5
 PM[B13,B4,0]: - c[B4,0] + c[B13,0] + 100 delta[B13,B4,0] <= 77
 PM[B13,B4,1]: - c[B4,1] + c[B13,1] + 9999 delta[B13,B4,1] <= 9983.5
 PM[B13,B5,0]: - c[B5,0] + c[B13,0] + 97 delta[B13,B5,0] <= 74
 PM[B13,B5,1]: - c[B5,1] + c[B13,1] + 9999 delta[B13,B5,1] <= 9990
 PM[B13,B6,0]: - c[B6,0] + c[B13,0] + 94 delta[B13,B6,0] <= 66.5
 PM[B13,B6,1]: - c[B6,1] + c[B13,1] + 9999 delta[B13,B6,1] <= 9986
 PM[B13,B7,0]: - c[B7,0] + c[B13,0] + 92 delta[B13,B7,0] <= 64.5
 PM[B13,B7,1]: - c[B7,1] + c[B13,1] + 9999 delta[B13,B7,1] <= 9985
 PM[B13,B8,0]: - c[B8,0] + c[B13,0] + 100 delta[B13,B8,0] <= 76.5
 PM[B13,B8,1]: - c[B8,1] + c[B13,1] + 10000 delta[B13,B8,1] <= 9987
 PM[B13,B9,0]: - c[B9,0] + c[B13,0] + 93 delta[B13,B9,0] <= 67.5
 PM[B13,B9,1]: - c[B9,1] + c[B13,1] + 9999 delta[B13,B9,1] <= 9985.5
 PM[B13,B10,0]: - c[B10,0] + c[B13,0] + 100 delta[B13,B10,0] <= 75
 PM[B13,B10,1]: - c[B10,1] + c[B13,1] + 10000 delta[B13,B10,1] <= 9990
 PM[B13,B11,0]: - c[B11,0] + c[B13,0] + 94 delta[B13,B11,0] <= 69.5
 PM[B13,B11,1]: - c[B11,1] + c[B13,1] + 9999 delta[B13,B11,1] <= 9981
 PM[B13,B12,0]: - c[B12,0] + c[B13,0] + 100 delta[B13,B12,0] <= 70.5
 PM[B13,B12,1]: - c[B12,1] + c[B13,1] + 10000 delta[B13,B12,1] <= 9989
 PM[B13,B14,0]: c[B13,0] - c[B14,0] + 100 delta[B13,B14,0] <= 73
 PM[B13,B14,1]: c[B13,1] - c[B14,1] + 9999 delta[B13,B14,1] <= 9988.5
 PM[B13,B15,0]: c[B13,0] - c[B15,0] + 100 delta[B13,B15,0] <= 72
 PM[B13,B15,1]: c[B13,1] - c[B15,1] + 10000 delta[B13,B15,1] <= 9989
 PM[B13,B16,0]: c[B13,0] - c[B16,0] + 100 delta[B13,B16,0] <= 73.5
 PM[B13,B16,1]: c[B13,1] - c[B16,1] + 9999 delta[B13,B16,1] <= 9989
 PM[B13,B17,0]: c[B13,0] - c[B17,0] + 100 delta[B13,B17,0] <= 73
 PM[B13,B17,1]: c[B13,1] - c[B17,1] + 9999 delta[B13,B17,1] <= 9973.5
 PM[B13,B18,0]: c[B13,0] - c[B18,0] + 87 delta[B13,B18,0] <= 54
 PM[B13,B18,1]: c[B13,1] - c[B18,1] + 10000 delta[B13,B18,1] <= 9991.5
 PM[B13,B19,0]: c[B13,0] - c[B19,0] + 100 delta[B13,B19,0] <= 73.5
 PM[B13,B19,1]: c[B13,1] - c[B19,1] + 10000 delta[B13,B19,1] <= 9990
 PM[B13,B20,0]: c[B13,0] - c[B20,0] + 98 delta[B13,B20,0] <= 70
 PM[B13,B20,1]: c[B13,1] - c[B20,1] + 10000 delta[B13,B20,1] <= 9990
 PM[B13,B21,0]: c[B13,0] - c[B21,0] + 87 delta[B13,B21,0] <= 54
 PM[B13,B21,1]: c[B13,1] - c[B21,1] + 9999 delta[B13,B21,1] <= 9989
 PM[B13,B22,0]: c[B13,0] - c[B22,0] + 93 delta[B13,B22,0] <= 68.5
 PM[B13,B22,1]: c[B13,1] - c[B22,1] + 10000 delta[B13,B22,1] <= 9988
 PM[B13,B23,0]: c[B13,0] - c[B23,0] + 96 delta[B13,B23,0] <= 72
 PM[B13,B23,1]: c[B13,1] - c[B23,1] + 10000 delta[B13,B23,1] <= 9987
 PM[B13,B24,0]: c[B13,0] - c[B24,0] + 97 delta[B13,B24,0] <= 72
 PM[B13,B24,1]: c[B13,1] - c[B24,1] + 10000 delta[B13,B24,1] <= 9986.5
 PM[B13,B25,0]: c[B13,0] - c[B25,0] + 89 delta[B13,B25,0] <= 61
 PM[B13,B25,1]: c[B13,1] - c[B25,1] + 9999 delta[B13,B25,1] <= 9989.5
 PM[B13,B26,0]: c[B13,0] - c[B26,0] + 97 delta[B13,B26,0] <= 73.5
 PM[B13,B26,1]: c[B13,1] - c[B26,1] + 10000 delta[B13,B26,1] <= 9991.5
 PM[B13,B27,0]: c[B13,0] - c[B27,0] + 93 delta[B13,B27,0] <= 69
 PM[B13,B27,1]: c[B13,1] - c[B27,1] + 9999 delta[B13,B27,1] <= 9982.5
 PM[B13,B28,0]: c[B13,0] - c[B28,0] + 89 delta[B13,B28,0] <= 60.5
 PM[B13,B28,1]: c[B13,1] - c[B28,1] + 9999 delta[B13,B28,1] <= 9988.5
 PM[B13,B29,0]: c[B13,0] - c[B29,0] + 100 delta[B13,B29,0] <= 72
 PM[B13,B29,1]: c[B13,1] - c[B29,1] + 10000 delta[B13,B29,1] <= 9987.5
 PM[B13,B30,0]: c[B13,0] - c[B30,0] + 98 delta[B13,B30,0] <= 75
 PM[B13,B30,1]: c[B13,1] - c[B30,1] + 9999 delta[B13,B30,1] <= 9965
 PM[B13,B31,0]: c[B13,0] - c[B31,0] + 93 delta[B13,B31,0] <= 64
 PM[B13,B31,1]: c[B13,1] - c[B31,1] + 9999 delta[B13,B31,1] <= 9985.5
 PM[B13,B32,0]: c[B13,0] - c[B32,0] + 100 delta[B13,B32,0] <= 74
 PM[B13,B32,1]: c[B13,1] - c[B32,1] + 10000 delta[B13,B32,1] <= 9990.5
 PM[B13,B33,0]: c[B13,0] - c[B33,0] + 100 delta[B13,B33,0] <= 72.5
 PM[B13,B33,1]: c[B13,1] - c[B33,1] + 10000 delta[B13,B33,1] <= 9992
 PM[B13,B34,0]: c[B13,0] - c[B34,0] + 100 delta[B13,B34,0] <= 77.5
 PM[B13,B34,1]: c[B13,1] - c[B34,1] + 10000 delta[B13,B34,1] <= 9988.5
 PM[B14,B0,0]: - c[B0,0] + c[B14,0] + 100 delta[B14,B0,0] <= 83.5
 PM[B14,B0,1]: - c[B0,1] + c[B14,1] + 10000 delta[B14,B0,1] <= 9979
 PM[B14,B1,0]: - c[B1,0] + c[B14,0] + 100 delta[B14,B1,0] <= 85
 PM[B14,B1,1]: - c[B1,1] + c[B14,1] + 10000 delta[B14,B1,1] <= 9989
 PM[B14,B2,0]: - c[B2,0] + c[B14,0] + 100 delta[B14,B2,0] <= 90
 PM[B14,B2,1]: - c[B2,1] + c[B14,1] + 10000 delta[B14,B2,1] <= 9981
 PM[B14,B3,0]: - c[B3,0] + c[B14,0] + 100 delta[B14,B3,0] <= 85
 PM[B14,B3,1]: - c[B3,1] + c[B14,1] + 10000 delta[B14,B3,1] <= 9986
 PM[B14,B4,0]: - c[B4,0] + c[B14,0] + 100 delta[B14,B4,0] <= 90
 PM[B14,B4,1]: - c[B4,1] + c[B14,1] + 10000 delta[B14,B4,1] <= 9984
 PM[B14,B5,0]: - c[B5,0] + c[B14,0] + 100 delta[B14,B5,0] <= 87
 PM[B14,B5,1]: - c[B5,1] + c[B14,1] + 10000 delta[B14,B5,1] <= 9990.5
 PM[B14,B6,0]: - c[B6,0] + c[B14,0] + 100 delta[B14,B6,0] <= 79.5
 PM[B14,B6,1]: - c[B6,1] + c[B14,1] + 10000 delta[B14,B6,1] <= 9986.5
 PM[B14,B7,0]: - c[B7,0] + c[B14,0] + 100 delta[B14,B7,0] <= 77.5
 PM[B14,B7,1]: - c[B7,1] + c[B14,1] + 10000 delta[B14,B7,1] <= 9985.5
 PM[B14,B8,0]: - c[B8,0] + c[B14,0] + 100 delta[B14,B8,0] <= 89.5
 PM[B14,B8,1]: - c[B8,1] + c[B14,1] + 10000 delta[B14,B8,1] <= 9987.5
 PM[B14,B9,0]: - c[B9,0] + c[B14,0] + 100 delta[B14,B9,0] <= 80.5
 PM[B14,B9,1]: - c[B9,1] + c[B14,1] + 10000 delta[B14,B9,1] <= 9986
 PM[B14,B10,0]: - c[B10,0] + c[B14,0] + 100 delta[B14,B10,0] <= 88
 PM[B14,B10,1]: - c[B10,1] + c[B14,1] + 10000 delta[B14,B10,1] <= 9990.5
 PM[B14,B11,0]: - c[B11,0] + c[B14,0] + 100 delta[B14,B11,0] <= 82.5
 PM[B14,B11,1]: - c[B11,1] + c[B14,1] + 10000 delta[B14,B11,1] <= 9981.5
 PM[B14,B12,0]: - c[B12,0] + c[B14,0] + 100 delta[B14,B12,0] <= 83.5
 PM[B14,B12,1]: - c[B12,1] + c[B14,1] + 10000 delta[B14,B12,1] <= 9989.5
 PM[B14,B13,0]: - c[B13,0] + c[B14,0] + 100 delta[B14,B13,0] <= 83
 PM[B14,B13,1]: - c[B13,1] + c[B14,1] + 10000 delta[B14,B13,1] <= 9991.5
 PM[B14,B15,0]: c[B14,0] - c[B15,0] + 100 delta[B14,B15,0] <= 85
 PM[B14,B15,1]: c[B14,1] - c[B15,1] + 10000 delta[B14,B15,1] <= 9989.5
 PM[B14,B16,0]: c[B14,0] - c[B16,0] + 100 delta[B14,B16,0] <= 86.5
 PM[B14,B16,1]: c[B14,1] - c[B16,1] + 10000 delta[B14,B16,1] <= 9989.5
 PM[B14,B17,0]: c[B14,0] - c[B17,0] + 100 delta[B14,B17,0] <= 86
 PM[B14,B17,1]: c[B14,1] - c[B17,1] + 10000 delta[B14,B17,1] <= 9974
 PM[B14,B18,0]: c[B14,0] - c[B18,0] + 100 delta[B14,B18,0] <= 67
 PM[B14,B18,1]: c[B14,1] - c[B18,1] + 10000 delta[B14,B18,1] <= 9992
 PM[B14,B19,0]: c[B14,0] - c[B19,0] + 100 delta[B14,B19,0] <= 86.5
 PM[B14,B19,1]: c[B14,1] - c[B19,1] + 10000 delta[B14,B19,1] <= 9990.5
 PM[B14,B20,0]: c[B14,0] - c[B20,0] + 100 delta[B14,B20,0] <= 83
 PM[B14,B20,1]: c[B14,1] - c[B20,1] + 10000 delta[B14,B20,1] <= 9990.5
 PM[B14,B21,0]: c[B14,0] - c[B21,0] + 100 delta[B14,B21,0] <= 67
 PM[B14,B21,1]: c[B14,1] - c[B21,1] + 10000 delta[B14,B21,1] <= 9989.5
 PM[B14,B22,0]: c[B14,0] - c[B22,0] + 100 delta[B14,B22,0] <= 81.5
 PM[B14,B22,1]: c[B14,1] - c[B22,1] + 10000 delta[B14,B22,1] <= 9988.5
 PM[B14,B23,0]: c[B14,0] - c[B23,0] + 100 delta[B14,B23,0] <= 85
 PM[B14,B23,1]: c[B14,1] - c[B23,1] + 10000 delta[B14,B23,1] <= 9987.5
 PM[B14,B24,0]: c[B14,0] - c[B24,0] + 100 delta[B14,B24,0] <= 85
 PM[B14,B24,1]: c[B14,1] - c[B24,1] + 10000 delta[B14,B24,1] <= 9987
 PM[B14,B25,0]: c[B14,0] - c[B25,0] + 100 delta[B14,B25,0] <= 74
 PM[B14,B25,1]: c[B14,1] - c[B25,1] + 10000 delta[B14,B25,1] <= 9990
 PM[B14,B26,0]: c[B14,0] - c[B26,0] + 100 delta[B14,B26,0] <= 86.5
 PM[B14,B26,1]: c[B14,1] - c[B26,1] + 10000 delta[B14,B26,1] <= 9992
 PM[B14,B27,0]: c[B14,0] - c[B27,0] + 100 delta[B14,B27,0] <= 82
 PM[B14,B27,1]: c[B14,1] - c[B27,1] + 10000 delta[B14,B27,1] <= 9983
 PM[B14,B28,0]: c[B14,0] - c[B28,0] + 100 delta[B14,B28,0] <= 73.5
 PM[B14,B28,1]: c[B14,1] - c[B28,1] + 10000 delta[B14,B28,1] <= 9989
 PM[B14,B29,0]: c[B14,0] - c[B29,0] + 100 delta[B14,B29,0] <= 85
 PM[B14,B29,1]: c[B14,1] - c[B29,1] + 10000 delta[B14,B29,1] <= 9988
 PM[B14,B30,0]: c[B14,0] - c[B30,0] + 100 delta[B14,B30,0] <= 88
 PM[B14,B30,1]: c[B14,1] - c[B30,1] + 10000 delta[B14,B30,1] <= 9965.5
 PM[B14,B31,0]: c[B14,0] - c[B31,0] + 100 delta[B14,B31,0] <= 77
 PM[B14,B31,1]: c[B14,1] - c[B31,1] + 10000 delta[B14,B31,1] <= 9986
 PM[B14,B32,0]: c[B14,0] - c[B32,0] + 100 delta[B14,B32,0] <= 87
 PM[B14,B32,1]: c[B14,1] - c[B32,1] + 10000 delta[B14,B32,1] <= 9991
 PM[B14,B33,0]: c[B14,0] - c[B33,0] + 100 delta[B14,B33,0] <= 85.5
 PM[B14,B33,1]: c[B14,1] - c[B33,1] + 10000 delta[B14,B33,1] <= 9992.5
 PM[B14,B34,0]: c[B14,0] - c[B34,0] + 100 delta[B14,B34,0] <= 90.5
 PM[B14,B34,1]: c[B14,1] - c[B34,1] + 10000 delta[B14,B34,1] <= 9989
 PM[B15,B0,0]: - c[B0,0] + c[B15,0] + 95 delta[B15,B0,0] <= 77.5
 PM[B15,B0,1]: - c[B0,1] + c[B15,1] + 9999 delta[B15,B0,1] <= 9976.5
 PM[B15,B1,0]: - c[B1,0] + c[B15,0] + 100 delta[B15,B1,0] <= 79
 PM[B15,B1,1]: - c[B1,1] + c[B15,1] + 10000 delta[B15,B1,1] <= 9986.5
 PM[B15,B2,0]: - c[B2,0] + c[B15,0] + 100 delta[B15,B2,0] <= 84
 PM[B15,B2,1]: - c[B2,1] + c[B15,1] + 9999 delta[B15,B2,1] <= 9978.5
 PM[B15,B3,0]: - c[B3,0] + c[B15,0] + 100 delta[B15,B3,0] <= 79
 PM[B15,B3,1]: - c[B3,1] + c[B15,1] + 9999 delta[B15,B3,1] <= 9983.5
 PM[B15,B4,0]: - c[B4,0] + c[B15,0] + 100 delta[B15,B4,0] <= 84
 PM[B15,B4,1]: - c[B4,1] + c[B15,1] + 9999 delta[B15,B4,1] <= 9981.5
 PM[B15,B5,0]: - c[B5,0] + c[B15,0] + 97 delta[B15,B5,0] <= 81
 PM[B15,B5,1]: - c[B5,1] + c[B15,1] + 9999 delta[B15,B5,1] <= 9988
 PM[B15,B6,0]: - c[B6,0] + c[B15,0] + 95 delta[B15,B6,0] <= 73.5
 PM[B15,B6,1]: - c[B6,1] + c[B15,1] + 9999 delta[B15,B6,1] <= 9984
 PM[B15,B7,0]: - c[B7,0] + c[B15,0] + 95 delta[B15,B7,0] <= 71.5
 PM[B15,B7,1]: - c[B7,1] + c[B15,1] + 9999 delta[B15,B7,1] <= 9983
 PM[B15,B8,0]: - c[B8,0] + c[B15,0] + 100 delta[B15,B8,0] <= 83.5
 PM[B15,B8,1]: - c[B8,1] + c[B15,1] + 10000 delta[B15,B8,1] <= 9985
 PM[B15,B9,0]: - c[B9,0] + c[B15,0] + 95 delta[B15,B9,0] <= 74.5
 PM[B15,B9,1]: - c[B9,1] + c[B15,1] + 9999 delta[B15,B9,1] <= 9983.5
 PM[B15,B10,0]: - c[B10,0] + c[B15,0] + 100 delta[B15,B10,0] <= 82
 PM[B15,B10,1]: - c[B10,1] + c[B15,1] + 10000 delta[B15,B10,1] <= 9988
 PM[B15,B11,0]: - c[B11,0] + c[B15,0] + 95 delta[B15,B11,0] <= 76.5
 PM[B15,B11,1]: - c[B11,1] + c[B15,1] + 9999 delta[B15,B11,1] <= 9979
 PM[B15,B12,0]: - c[B12,0] + c[B15,0] + 100 delta[B15,B12,0] <= 77.5
 PM[B15,B12,1]: - c[B12,1] + c[B15,1] + 10000 delta[B15,B12,1] <= 9987
 PM[B15,B13,0]: - c[B13,0] + c[B15,0] + 97 delta[B15,B13,0] <= 77
 PM[B15,B13,1]: - c[B13,1] + c[B15,1] + 10000 delta[B15,B13,1] <= 9989
 PM[B15,B14,0]: - c[B14,0] + c[B15,0] + 100 delta[B15,B14,0] <= 80
 PM[B15,B14,1]: - c[B14,1] + c[B15,1] + 9999 delta[B15,B14,1] <= 9986.5
 PM[B15,B16,0]: c[B15,0] - c[B16,0] + 100 delta[B15,B16,0] <= 80.5
 PM[B15,B16,1]: c[B15,1] - c[B16,1] + 9999 delta[B15,B16,1] <= 9987
 PM[B15,B17,0]: c[B15,0] - c[B17,0] + 100 delta[B15,B17,0] <= 80
 PM[B15,B17,1]: c[B15,1] - c[B17,1] + 9999 delta[B15,B17,1] <= 9971.5
 PM[B15,B18,0]: c[B15,0] - c[B18,0] + 95 delta[B15,B18,0] <= 61
 PM[B15,B18,1]: c[B15,1] - c[B18,1] + 10000 delta[B15,B18,1] <= 9989.5
 PM[B15,B19,0]: c[B15,0] - c[B19,0] + 100 delta[B15,B19,0] <= 80.5
 PM[B15,B19,1]: c[B15,1] - c[B19,1] + 10000 delta[B15,B19,1] <= 9988
 PM[B15,B20,0]: c[B15,0] - c[B20,0] + 98 delta[B15,B20,0] <= 77
 PM[B15,B20,1]: c[B15,1] - c[B20,1] + 10000 delta[B15,B20,1] <= 9988
 PM[B15,B21,0]: c[B15,0] - c[B21,0] + 95 delta[B15,B21,0] <= 61
 PM[B15,B21,1]: c[B15,1] - c[B21,1] + 9999 delta[B15,B21,1] <= 9987
 PM[B15,B22,0]: c[B15,0] - c[B22,0] + 95 delta[B15,B22,0] <= 75.5
 PM[B15,B22,1]: c[B15,1] - c[B22,1] + 10000 delta[B15,B22,1] <= 9986
 PM[B15,B23,0]: c[B15,0] - c[B23,0] + 96 delta[B15,B23,0] <= 79
 PM[B15,B23,1]: c[B15,1] - c[B23,1] + 10000 delta[B15,B23,1] <= 9985
 PM[B15,B24,0]: c[B15,0] - c[B24,0] + 97 delta[B15,B24,0] <= 79
 PM[B15,B24,1]: c[B15,1] - c[B24,1] + 10000 delta[B15,B24,1] <= 9984.5
 PM[B15,B25,0]: c[B15,0] - c[B25,0] + 95 delta[B15,B25,0] <= 68
 PM[B15,B25,1]: c[B15,1] - c[B25,1] + 9999 delta[B15,B25,1] <= 9987.5
 PM[B15,B26,0]: c[B15,0] - c[B26,0] + 97 delta[B15,B26,0] <= 80.5
 PM[B15,B26,1]: c[B15,1] - c[B26,1] + 10000 delta[B15,B26,1] <= 9989.5
 PM[B15,B27,0]: c[B15,0] - c[B27,0] + 95 delta[B15,B27,0] <= 76
 PM[B15,B27,1]: c[B15,1] - c[B27,1] + 9999 delta[B15,B27,1] <= 9980.5
 PM[B15,B28,0]: c[B15,0] - c[B28,0] + 95 delta[B15,B28,0] <= 67.5
 PM[B15,B28,1]: c[B15,1] - c[B28,1] + 9999 delta[B15,B28,1] <= 9986.5
 PM[B15,B29,0]: c[B15,0] - c[B29,0] + 100 delta[B15,B29,0] <= 79
 PM[B15,B29,1]: c[B15,1] - c[B29,1] + 10000 delta[B15,B29,1] <= 9985.5
 PM[B15,B30,0]: c[B15,0] - c[B30,0] + 98 delta[B15,B30,0] <= 82
 PM[B15,B30,1]: c[B15,1] - c[B30,1] + 9999 delta[B15,B30,1] <= 9963
 PM[B15,B31,0]: c[B15,0] - c[B31,0] + 95 delta[B15,B31,0] <= 71
 PM[B15,B31,1]: c[B15,1] - c[B31,1] + 9999 delta[B15,B31,1] <= 9983.5
 PM[B15,B32,0]: c[B15,0] - c[B32,0] + 100 delta[B15,B32,0] <= 81
 PM[B15,B32,1]: c[B15,1] - c[B32,1] + 10000 delta[B15,B32,1] <= 9988.5
 PM[B15,B33,0]: c[B15,0] - c[B33,0] + 100 delta[B15,B33,0] <= 79.5
 PM[B15,B33,1]: c[B15,1] - c[B33,1] + 10000 delta[B15,B33,1] <= 9990
 PM[B15,B34,0]: c[B15,0] - c[B34,0] + 100 delta[B15,B34,0] <= 84.5
 PM[B15,B34,1]: c[B15,1] - c[B34,1] + 10000 delta[B15,B34,1] <= 9986.5
 PM[B16,B0,0]: - c[B0,0] + c[B16,0] + 95 delta[B16,B0,0] <= 72
 PM[B16,B0,1]: - c[B0,1] + c[B16,1] + 10000 delta[B16,B0,1] <= 9979.5
 PM[B16,B1,0]: - c[B1,0] + c[B16,0] + 100 delta[B16,B1,0] <= 73.5
 PM[B16,B1,1]: - c[B1,1] + c[B16,1] + 10000 delta[B16,B1,1] <= 9989.5
 PM[B16,B2,0]: - c[B2,0] + c[B16,0] + 100 delta[B16,B2,0] <= 78.5
 PM[B16,B2,1]: - c[B2,1] + c[B16,1] + 10000 delta[B16,B2,1] <= 9981.5
 PM[B16,B3,0]: - c[B3,0] + c[B16,0] + 100 delta[B16,B3,0] <= 73.5
 PM[B16,B3,1]: - c[B3,1] + c[B16,1] + 10000 delta[B16,B3,1] <= 9986.5
 PM[B16,B4,0]: - c[B4,0] + c[B16,0] + 100 delta[B16,B4,0] <= 78.5
 PM[B16,B4,1]: - c[B4,1] + c[B16,1] + 10000 delta[B16,B4,1] <= 9984.5
 PM[B16,B5,0]: - c[B5,0] + c[B16,0] + 97 delta[B16,B5,0] <= 75.5
 PM[B16,B5,1]: - c[B5,1] + c[B16,1] + 10000 delta[B16,B5,1] <= 9991
 PM[B16,B6,0]: - c[B6,0] + c[B16,0] + 94 delta[B16,B6,0] <= 68
 PM[B16,B6,1]: - c[B6,1] + c[B16,1] + 10000 delta[B16,B6,1] <= 9987
 PM[B16,B7,0]: - c[B7,0] + c[B16,0] + 92 delta[B16,B7,0] <= 66
 PM[B16,B7,1]: - c[B7,1] + c[B16,1] + 10000 delta[B16,B7,1] <= 9986
 PM[B16,B8,0]: - c[B8,0] + c[B16,0] + 100 delta[B16,B8,0] <= 78
 PM[B16,B8,1]: - c[B8,1] + c[B16,1] + 10000 delta[B16,B8,1] <= 9988
 PM[B16,B9,0]: - c[B9,0] + c[B16,0] + 93 delta[B16,B9,0] <= 69
 PM[B16,B9,1]: - c[B9,1] + c[B16,1] + 10000 delta[B16,B9,1] <= 9986.5
 PM[B16,B10,0]: - c[B10,0] + c[B16,0] + 100 delta[B16,B10,0] <= 76.5
 PM[B16,B10,1]: - c[B10,1] + c[B16,1] + 10000 delta[B16,B10,1] <= 9991
 PM[B16,B11,0]: - c[B11,0] + c[B16,0] + 94 delta[B16,B11,0] <= 71
 PM[B16,B11,1]: - c[B11,1] + c[B16,1] + 10000 delta[B16,B11,1] <= 9982
 PM[B16,B12,0]: - c[B12,0] + c[B16,0] + 100 delta[B16,B12,0] <= 72
 PM[B16,B12,1]: - c[B12,1] + c[B16,1] + 10000 delta[B16,B12,1] <= 9990
 PM[B16,B13,0]: - c[B13,0] + c[B16,0] + 97 delta[B16,B13,0] <= 71.5
 PM[B16,B13,1]: - c[B13,1] + c[B16,1] + 10000 delta[B16,B13,1] <= 9992
 PM[B16,B14,0]: - c[B14,0] + c[B16,0] + 100 delta[B16,B14,0] <= 74.5
 PM[B16,B14,1]: - c[B14,1] + c[B16,1] + 10000 delta[B16,B14,1] <= 9989.5
 PM[B16,B15,0]: - c[B15,0] + c[B16,0] + 100 delta[B16,B15,0] <= 73.5
 PM[B16,B15,1]: - c[B15,1] + c[B16,1] + 10000 delta[B16,B15,1] <= 9990
 PM[B16,B17,0]: c[B16,0] - c[B17,0] + 100 delta[B16,B17,0] <= 74.5
 PM[B16,B17,1]: c[B16,1] - c[B17,1] + 10000 delta[B16,B17,1] <= 9974.5
 PM[B16,B18,0]: c[B16,0] - c[B18,0] + 88 delta[B16,B18,0] <= 55.5
 PM[B16,B18,1]: c[B16,1] - c[B18,1] + 10000 delta[B16,B18,1] <= 9992.5
 PM[B16,B19,0]: c[B16,0] - c[B19,0] + 100 delta[B16,B19,0] <= 75
 PM[B16,B19,1]: c[B16,1] - c[B19,1] + 10000 delta[B16,B19,1] <= 9991
 PM[B16,B20,0]: c[B16,0] - c[B20,0] + 98 delta[B16,B20,0] <= 71.5
 PM[B16,B20,1]: c[B16,1] - c[B20,1] + 10000 delta[B16,B20,1] <= 9991
 PM[B16,B21,0]: c[B16,0] - c[B21,0] + 88 delta[B16,B21,0] <= 55.5
 PM[B16,B21,1]: c[B16,1] - c[B21,1] + 10000 delta[B16,B21,1] <= 9990
 PM[B16,B22,0]: c[B16,0] - c[B22,0] + 93 delta[B16,B22,0] <= 70
 PM[B16,B22,1]: c[B16,1] - c[B22,1] + 10000 delta[B16,B22,1] <= 9989
 PM[B16,B23,0]: c[B16,0] - c[B23,0] + 96 delta[B16,B23,0] <= 73.5
 PM[B16,B23,1]: c[B16,1] - c[B23,1] + 10000 delta[B16,B23,1] <= 9988
 PM[B16,B24,0]: c[B16,0] - c[B24,0] + 97 delta[B16,B24,0] <= 73.5
 PM[B16,B24,1]: c[B16,1] - c[B24,1] + 10000 delta[B16,B24,1] <= 9987.5
 PM[B16,B25,0]: c[B16,0] - c[B25,0] + 89 delta[B16,B25,0] <= 62.5
 PM[B16,B25,1]: c[B16,1] - c[B25,1] + 10000 delta[B16,B25,1] <= 9990.5
 PM[B16,B26,0]: c[B16,0] - c[B26,0] + 97 delta[B16,B26,0] <= 75
 PM[B16,B26,1]: c[B16,1] - c[B26,1] + 10000 delta[B16,B26,1] <= 9992.5
 PM[B16,B27,0]: c[B16,0] - c[B27,0] + 93 delta[B16,B27,0] <= 70.5
 PM[B16,B27,1]: c[B16,1] - c[B27,1] + 10000 delta[B16,B27,1] <= 9983.5
 PM[B16,B28,0]: c[B16,0] - c[B28,0] + 89 delta[B16,B28,0] <= 62
 PM[B16,B28,1]: c[B16,1] - c[B28,1] + 10000 delta[B16,B28,1] <= 9989.5
 PM[B16,B29,0]: c[B16,0] - c[B29,0] + 100 delta[B16,B29,0] <= 73.5
 PM[B16,B29,1]: c[B16,1] - c[B29,1] + 10000 delta[B16,B29,1] <= 9988.5
 PM[B16,B30,0]: c[B16,0] - c[B30,0] + 98 delta[B16,B30,0] <= 76.5
 PM[B16,B30,1]: c[B16,1] - c[B30,1] + 10000 delta[B16,B30,1] <= 9966
 PM[B16,B31,0]: c[B16,0] - c[B31,0] + 93 delta[B16,B31,0] <= 65.5
 PM[B16,B31,1]: c[B16,1] - c[B31,1] + 10000 delta[B16,B31,1] <= 9986.5
 PM[B16,B32,0]: c[B16,0] - c[B32,0] + 100 delta[B16,B32,0] <= 75.5
 PM[B16,B32,1]: c[B16,1] - c[B32,1] + 10000 delta[B16,B32,1] <= 9991.5
 PM[B16,B33,0]: c[B16,0] - c[B33,0] + 100 delta[B16,B33,0] <= 74
 PM[B16,B33,1]: c[B16,1] - c[B33,1] + 10000 delta[B16,B33,1] <= 9993
 PM[B16,B34,0]: c[B16,0] - c[B34,0] + 100 delta[B16,B34,0] <= 79
 PM[B16,B34,1]: c[B16,1] - c[B34,1] + 10000 delta[B16,B34,1] <= 9989.5
 PM[B17,B0,0]: - c[B0,0] + c[B17,0] + 98 delta[B17,B0,0] <= 81.5
 PM[B17,B0,1]: - c[B0,1] + c[B17,1] + 10000 delta[B17,B0,1] <= 9974
 PM[B17,B1,0]: - c[B1,0] + c[B17,0] + 100 delta[B17,B1,0] <= 83
 PM[B17,B1,1]: - c[B1,1] + c[B17,1] + 10000 delta[B17,B1,1] <= 9984
 PM[B17,B2,0]: - c[B2,0] + c[B17,0] + 100 delta[B17,B2,0] <= 88
 PM[B17,B2,1]: - c[B2,1] + c[B17,1] + 10000 delta[B17,B2,1] <= 9976
 PM[B17,B3,0]: - c[B3,0] + c[B17,0] + 100 delta[B17,B3,0] <= 83
 PM[B17,B3,1]: - c[B3,1] + c[B17,1] + 10000 delta[B17,B3,1] <= 9981
 PM[B17,B4,0]: - c[B4,0] + c[B17,0] + 100 delta[B17,B4,0] <= 88
 PM[B17,B4,1]: - c[B4,1] + c[B17,1] + 10000 delta[B17,B4,1] <= 9979
 PM[B17,B5,0]: - c[B5,0] + c[B17,0] + 98 delta[B17,B5,0] <= 85
 PM[B17,B5,1]: - c[B5,1] + c[B17,1] + 10000 delta[B17,B5,1] <= 9985.5
 PM[B17,B6,0]: - c[B6,0] + c[B17,0] + 98 delta[B17,B6,0] <= 77.5
 PM[B17,B6,1]: - c[B6,1] + c[B17,1] + 10000 delta[B17,B6,1] <= 9981.5
 PM[B17,B7,0]: - c[B7,0] + c[B17,0] + 98 delta[B17,B7,0] <= 75.5
 PM[B17,B7,1]: - c[B7,1] + c[B17,1] + 10000 delta[B17,B7,1] <= 9980.5
 PM[B17,B8,0]: - c[B8,0] + c[B17,0] + 100 delta[B17,B8,0] <= 87.5
 PM[B17,B8,1]: - c[B8,1] + c[B17,1] + 10000 delta[B17,B8,1] <= 9982.5
 PM[B17,B9,0]: - c[B9,0] + c[B17,0] + 98 delta[B17,B9,0] <= 78.5
 PM[B17,B9,1]: - c[B9,1] + c[B17,1] + 10000 delta[B17,B9,1] <= 9981
 PM[B17,B10,0]: - c[B10,0] + c[B17,0] + 100 delta[B17,B10,0] <= 86
 PM[B17,B10,1]: - c[B10,1] + c[B17,1] + 10000 delta[B17,B10,1] <= 9985.5
 PM[B17,B11,0]: - c[B11,0] + c[B17,0] + 98 delta[B17,B11,0] <= 80.5
 PM[B17,B11,1]: - c[B11,1] + c[B17,1] + 10000 delta[B17,B11,1] <= 9976.5
 PM[B17,B12,0]: - c[B12,0] + c[B17,0] + 100 delta[B17,B12,0] <= 81.5
 PM[B17,B12,1]: - c[B12,1] + c[B17,1] + 10000 delta[B17,B12,1] <= 9984.5
 PM[B17,B13,0]: - c[B13,0] + c[B17,0] + 98 delta[B17,B13,0] <= 81
 PM[B17,B13,1]: - c[B13,1] + c[B17,1] + 10000 delta[B17,B13,1] <= 9986.5
 PM[B17,B14,0]: - c[B14,0] + c[B17,0] + 100 delta[B17,B14,0] <= 84
 PM[B17,B14,1]: - c[B14,1] + c[B17,1] + 10000 delta[B17,B14,1] <= 9984
 PM[B17,B15,0]: - c[B15,0] + c[B17,0] + 100 delta[B17,B15,0] <= 83
 PM[B17,B15,1]: - c[B15,1] + c[B17,1] + 10000 delta[B17,B15,1] <= 9984.5
 PM[B17,B16,0]: - c[B16,0] + c[B17,0] + 100 delta[B17,B16,0] <= 84.5
 PM[B17,B16,1]: - c[B16,1] + c[B17,1] + 10000 delta[B17,B16,1] <= 9984.5
 PM[B17,B18,0]: c[B17,0] - c[B18,0] + 98 delta[B17,B18,0] <= 65
 PM[B17,B18,1]: c[B17,1] - c[B18,1] + 10000 delta[B17,B18,1] <= 9987
 PM[B17,B19,0]: c[B17,0] - c[B19,0] + 100 delta[B17,B19,0] <= 84.5
 PM[B17,B19,1]: c[B17,1] - c[B19,1] + 10000 delta[B17,B19,1] <= 9985.5
 PM[B17,B20,0]: c[B17,0] - c[B20,0] + 98 delta[B17,B20,0] <= 81
 PM[B17,B20,1]: c[B17,1] - c[B20,1] + 10000 delta[B17,B20,1] <= 9985.5
 PM[B17,B21,0]: c[B17,0] - c[B21,0] + 98 delta[B17,B21,0] <= 65
 PM[B17,B21,1]: c[B17,1] - c[B21,1] + 10000 delta[B17,B21,1] <= 9984.5
 PM[B17,B22,0]: c[B17,0] - c[B22,0] + 98 delta[B17,B22,0] <= 79.5
 PM[B17,B22,1]: c[B17,1] - c[B22,1] + 10000 delta[B17,B22,1] <= 9983.5
 PM[B17,B23,0]: c[B17,0] - c[B23,0] + 98 delta[B17,B23,0] <= 83
 PM[B17,B23,1]: c[B17,1] - c[B23,1] + 10000 delta[B17,B23,1] <= 9982.5
 PM[B17,B24,0]: c[B17,0] - c[B24,0] + 98 delta[B17,B24,0] <= 83
 PM[B17,B24,1]: c[B17,1] - c[B24,1] + 10000 delta[B17,B24,1] <= 9982
 PM[B17,B25,0]: c[B17,0] - c[B25,0] + 98 delta[B17,B25,0] <= 72
 PM[B17,B25,1]: c[B17,1] - c[B25,1] + 10000 delta[B17,B25,1] <= 9985
 PM[B17,B26,0]: c[B17,0] - c[B26,0] + 98 delta[B17,B26,0] <= 84.5
 PM[B17,B26,1]: c[B17,1] - c[B26,1] + 10000 delta[B17,B26,1] <= 9987
 PM[B17,B27,0]: c[B17,0] - c[B27,0] + 98 delta[B17,B27,0] <= 80
 PM[B17,B27,1]: c[B17,1] - c[B27,1] + 10000 delta[B17,B27,1] <= 9978
 PM[B17,B28,0]: c[B17,0] - c[B28,0] + 98 delta[B17,B28,0] <= 71.5
 PM[B17,B28,1]: c[B17,1] - c[B28,1] + 10000 delta[B17,B28,1] <= 9984
 PM[B17,B29,0]: c[B17,0] - c[B29,0] + 100 delta[B17,B29,0] <= 83
 PM[B17,B29,1]: c[B17,1] - c[B29,1] + 10000 delta[B17,B29,1] <= 9983
 PM[B17,B30,0]: c[B17,0] - c[B30,0] + 98 delta[B17,B30,0] <= 86
 PM[B17,B30,1]: c[B17,1] - c[B30,1] + 10000 delta[B17,B30,1] <= 9960.5
 PM[B17,B31,0]: c[B17,0] - c[B31,0] + 98 delta[B17,B31,0] <= 75
 PM[B17,B31,1]: c[B17,1] - c[B31,1] + 10000 delta[B17,B31,1] <= 9981
 PM[B17,B32,0]: c[B17,0] - c[B32,0] + 100 delta[B17,B32,0] <= 85
 PM[B17,B32,1]: c[B17,1] - c[B32,1] + 10000 delta[B17,B32,1] <= 9986
 PM[B17,B33,0]: c[B17,0] - c[B33,0] + 100 delta[B17,B33,0] <= 83.5
 PM[B17,B33,1]: c[B17,1] - c[B33,1] + 10000 delta[B17,B33,1] <= 9987.5
 PM[B17,B34,0]: c[B17,0] - c[B34,0] + 100 delta[B17,B34,0] <= 88.5
 PM[B17,B34,1]: c[B17,1] - c[B34,1] + 10000 delta[B17,B34,1] <= 9984
 PM[B18,B0,0]: - c[B0,0] + c[B18,0] + 97 delta[B18,B0,0] <= 77.5
 PM[B18,B0,1]: - c[B0,1] + c[B18,1] + 9997 delta[B18,B0,1] <= 9977
 PM[B18,B1,0]: - c[B1,0] + c[B18,0] + 100 delta[B18,B1,0] <= 79
 PM[B18,B1,1]: - c[B1,1] + c[B18,1] + 10000 delta[B18,B1,1] <= 9987
 PM[B18,B2,0]: - c[B2,0] + c[B18,0] + 100 delta[B18,B2,0] <= 84
 PM[B18,B2,1]: - c[B2,1] + c[B18,1] + 9997 delta[B18,B2,1] <= 9979
 PM[B18,B3,0]: - c[B3,0] + c[B18,0] + 100 delta[B18,B3,0] <= 79
 PM[B18,B3,1]: - c[B3,1] + c[B18,1] + 9997 delta[B18,B3,1] <= 9984
 PM[B18,B4,0]: - c[B4,0] + c[B18,0] + 100 delta[B18,B4,0] <= 84
 PM[B18,B4,1]: - c[B4,1] + c[B18,1] + 9997 delta[B18,B4,1] <= 9982
 PM[B18,B5,0]: - c[B5,0] + c[B18,0] + 97 delta[B18,B5,0] <= 81
 PM[B18,B5,1]: - c[B5,1] + c[B18,1] + 9998 delta[B18,B5,1] <= 9988.5
 PM[B18,B6,0]: - c[B6,0] + c[B18,0] + 97 delta[B18,B6,0] <= 73.5
 PM[B18,B6,1]: - c[B6,1] + c[B18,1] + 9997 delta[B18,B6,1] <= 9984.5
 PM[B18,B7,0]: - c[B7,0] + c[B18,0] + 97 delta[B18,B7,0] <= 71.5
 PM[B18,B7,1]: - c[B7,1] + c[B18,1] + 9997 delta[B18,B7,1] <= 9983.5
 PM[B18,B8,0]: - c[B8,0] + c[B18,0] + 100 delta[B18,B8,0] <= 83.5
 PM[B18,B8,1]: - c[B8,1] + c[B18,1] + 10000 delta[B18,B8,1] <= 9985.5
 PM[B18,B9,0]: - c[B9,0] + c[B18,0] + 97 delta[B18,B9,0] <= 74.5
 PM[B18,B9,1]: - c[B9,1] + c[B18,1] + 9997 delta[B18,B9,1] <= 9984
 PM[B18,B10,0]: - c[B10,0] + c[B18,0] + 100 delta[B18,B10,0] <= 82
 PM[B18,B10,1]: - c[B10,1] + c[B18,1] + 10000 delta[B18,B10,1] <= 9988.5
 PM[B18,B11,0]: - c[B11,0] + c[B18,0] + 97 delta[B18,B11,0] <= 76.5
 PM[B18,B11,1]: - c[B11,1] + c[B18,1] + 9997 delta[B18,B11,1] <= 9979.5
 PM[B18,B12,0]: - c[B12,0] + c[B18,0] + 100 delta[B18,B12,0] <= 77.5
 PM[B18,B12,1]: - c[B12,1] + c[B18,1] + 10000 delta[B18,B12,1] <= 9987.5
 PM[B18,B13,0]: - c[B13,0] + c[B18,0] + 97 delta[B18,B13,0] <= 77
 PM[B18,B13,1]: - c[B13,1] + c[B18,1] + 10000 delta[B18,B13,1] <= 9989.5
 PM[B18,B14,0]: - c[B14,0] + c[B18,0] + 100 delta[B18,B14,0] <= 80
 PM[B18,B14,1]: - c[B14,1] + c[B18,1] + 9998 delta[B18,B14,1] <= 9987
 PM[B18,B15,0]: - c[B15,0] + c[B18,0] + 100 delta[B18,B15,0] <= 79
 PM[B18,B15,1]: - c[B15,1] + c[B18,1] + 10000 delta[B18,B15,1] <= 9987.5
 PM[B18,B16,0]: - c[B16,0] + c[B18,0] + 100 delta[B18,B16,0] <= 80.5
 PM[B18,B16,1]: - c[B16,1] + c[B18,1] + 9998 delta[B18,B16,1] <= 9987.5
 PM[B18,B17,0]: - c[B17,0] + c[B18,0] + 100 delta[B18,B17,0] <= 80
 PM[B18,B17,1]: - c[B17,1] + c[B18,1] + 9997 delta[B18,B17,1] <= 9972
 PM[B18,B19,0]: c[B18,0] - c[B19,0] + 100 delta[B18,B19,0] <= 80.5
 PM[B18,B19,1]: c[B18,1] - c[B19,1] + 10000 delta[B18,B19,1] <= 9988.5
 PM[B18,B20,0]: c[B18,0] - c[B20,0] + 98 delta[B18,B20,0] <= 77
 PM[B18,B20,1]: c[B18,1] - c[B20,1] + 10000 delta[B18,B20,1] <= 9988.5
 PM[B18,B21,0]: c[B18,0] - c[B21,0] + 97 delta[B18,B21,0] <= 61
 PM[B18,B21,1]: c[B18,1] - c[B21,1] + 9998 delta[B18,B21,1] <= 9987.5
 PM[B18,B22,0]: c[B18,0] - c[B22,0] + 97 delta[B18,B22,0] <= 75.5
 PM[B18,B22,1]: c[B18,1] - c[B22,1] + 10000 delta[B18,B22,1] <= 9986.5
 PM[B18,B23,0]: c[B18,0] - c[B23,0] + 97 delta[B18,B23,0] <= 79
 PM[B18,B23,1]: c[B18,1] - c[B23,1] + 10000 delta[B18,B23,1] <= 9985.5
 PM[B18,B24,0]: c[B18,0] - c[B24,0] + 97 delta[B18,B24,0] <= 79
 PM[B18,B24,1]: c[B18,1] - c[B24,1] + 10000 delta[B18,B24,1] <= 9985
 PM[B18,B25,0]: c[B18,0] - c[B25,0] + 97 delta[B18,B25,0] <= 68
 PM[B18,B25,1]: c[B18,1] - c[B25,1] + 9999 delta[B18,B25,1] <= 9988
 PM[B18,B26,0]: c[B18,0] - c[B26,0] + 97 delta[B18,B26,0] <= 80.5
 PM[B18,B26,1]: c[B18,1] - c[B26,1] + 10000 delta[B18,B26,1] <= 9990
 PM[B18,B27,0]: c[B18,0] - c[B27,0] + 97 delta[B18,B27,0] <= 76
 PM[B18,B27,1]: c[B18,1] - c[B27,1] + 9997 delta[B18,B27,1] <= 9981
 PM[B18,B28,0]: c[B18,0] - c[B28,0] + 97 delta[B18,B28,0] <= 67.5
 PM[B18,B28,1]: c[B18,1] - c[B28,1] + 9997 delta[B18,B28,1] <= 9987
 PM[B18,B29,0]: c[B18,0] - c[B29,0] + 100 delta[B18,B29,0] <= 79
 PM[B18,B29,1]: c[B18,1] - c[B29,1] + 10000 delta[B18,B29,1] <= 9986
 PM[B18,B30,0]: c[B18,0] - c[B30,0] + 98 delta[B18,B30,0] <= 82
 PM[B18,B30,1]: c[B18,1] - c[B30,1] + 9997 delta[B18,B30,1] <= 9963.5
 PM[B18,B31,0]: c[B18,0] - c[B31,0] + 97 delta[B18,B31,0] <= 71
 PM[B18,B31,1]: c[B18,1] - c[B31,1] + 9999 delta[B18,B31,1] <= 9984
 PM[B18,B32,0]: c[B18,0] - c[B32,0] + 100 delta[B18,B32,0] <= 81
 PM[B18,B32,1]: c[B18,1] - c[B32,1] + 10000 delta[B18,B32,1] <= 9989
 PM[B18,B33,0]: c[B18,0] - c[B33,0] + 100 delta[B18,B33,0] <= 79.5
 PM[B18,B33,1]: c[B18,1] - c[B33,1] + 10000 delta[B18,B33,1] <= 9990.5
 PM[B18,B34,0]: c[B18,0] - c[B34,0] + 100 delta[B18,B34,0] <= 84.5
 PM[B18,B34,1]: c[B18,1] - c[B34,1] + 10000 delta[B18,B34,1] <= 9987
 PM[B19,B0,0]: - c[B0,0] + c[B19,0] + 100 delta[B19,B0,0] <= 84
 PM[B19,B0,1]: - c[B0,1] + c[B19,1] + 9992 delta[B19,B0,1] <= 9970.5
 PM[B19,B1,0]: - c[B1,0] + c[B19,0] + 100 delta[B19,B1,0] <= 85.5
 PM[B19,B1,1]: - c[B1,1] + c[B19,1] + 10000 delta[B19,B1,1] <= 9980.5
 PM[B19,B2,0]: - c[B2,0] + c[B19,0] + 100 delta[B19,B2,0] <= 90.5
 PM[B19,B2,1]: - c[B2,1] + c[B19,1] + 9992 delta[B19,B2,1] <= 9972.5
 PM[B19,B3,0]: - c[B3,0] + c[B19,0] + 100 delta[B19,B3,0] <= 85.5
 PM[B19,B3,1]: - c[B3,1] + c[B19,1] + 9997 delta[B19,B3,1] <= 9977.5
 PM[B19,B4,0]: - c[B4,0] + c[B19,0] + 100 delta[B19,B4,0] <= 90.5
 PM[B19,B4,1]: - c[B4,1] + c[B19,1] + 9995 delta[B19,B4,1] <= 9975.5
 PM[B19,B5,0]: - c[B5,0] + c[B19,0] + 100 delta[B19,B5,0] <= 87.5
 PM[B19,B5,1]: - c[B5,1] + c[B19,1] + 9998 delta[B19,B5,1] <= 9982
 PM[B19,B6,0]: - c[B6,0] + c[B19,0] + 100 delta[B19,B6,0] <= 80
 PM[B19,B6,1]: - c[B6,1] + c[B19,1] + 9995 delta[B19,B6,1] <= 9978
 PM[B19,B7,0]: - c[B7,0] + c[B19,0] + 100 delta[B19,B7,0] <= 78
 PM[B19,B7,1]: - c[B7,1] + c[B19,1] + 9994 delta[B19,B7,1] <= 9977
 PM[B19,B8,0]: - c[B8,0] + c[B19,0] + 100 delta[B19,B8,0] <= 90
 PM[B19,B8,1]: - c[B8,1] + c[B19,1] + 10000 delta[B19,B8,1] <= 9979
 PM[B19,B9,0]: - c[B9,0] + c[B19,0] + 100 delta[B19,B9,0] <= 81
 PM[B19,B9,1]: - c[B9,1] + c[B19,1] + 9995 delta[B19,B9,1] <= 9977.5
 PM[B19,B10,0]: - c[B10,0] + c[B19,0] + 100 delta[B19,B10,0] <= 88.5
 PM[B19,B10,1]: - c[B10,1] + c[B19,1] + 10000 delta[B19,B10,1] <= 9982
 PM[B19,B11,0]: - c[B11,0] + c[B19,0] + 100 delta[B19,B11,0] <= 83
 PM[B19,B11,1]: - c[B11,1] + c[B19,1] + 9992 delta[B19,B11,1] <= 9973
 PM[B19,B12,0]: - c[B12,0] + c[B19,0] + 100 delta[B19,B12,0] <= 84
 PM[B19,B12,1]: - c[B12,1] + c[B19,1] + 10000 delta[B19,B12,1] <= 9981
 PM[B19,B13,0]: - c[B13,0] + c[B19,0] + 100 delta[B19,B13,0] <= 83.5
 PM[B19,B13,1]: - c[B13,1] + c[B19,1] + 10000 delta[B19,B13,1] <= 9983
 PM[B19,B14,0]: - c[B14,0] + c[B19,0] + 100 delta[B19,B14,0] <= 86.5
 PM[B19,B14,1]: - c[B14,1] + c[B19,1] + 9998 delta[B19,B14,1] <= 9980.5
 PM[B19,B15,0]: - c[B15,0] + c[B19,0] + 100 delta[B19,B15,0] <= 85.5
 PM[B19,B15,1]: - c[B15,1] + c[B19,1] + 10000 delta[B19,B15,1] <= 9981
 PM[B19,B16,0]: - c[B16,0] + c[B19,0] + 100 delta[B19,B16,0] <= 87
 PM[B19,B16,1]: - c[B16,1] + c[B19,1] + 9998 delta[B19,B16,1] <= 9981
 PM[B19,B17,0]: - c[B17,0] + c[B19,0] + 100 delta[B19,B17,0] <= 86.5
 PM[B19,B17,1]: - c[B17,1] + c[B19,1] + 9992 delta[B19,B17,1] <= 9965.5
 PM[B19,B18,0]: - c[B18,0] + c[B19,0] + 100 delta[B19,B18,0] <= 67.5
 PM[B19,B18,1]: - c[B18,1] + c[B19,1] + 10000 delta[B19,B18,1] <= 9983.5
 PM[B19,B20,0]: c[B19,0] - c[B20,0] + 100 delta[B19,B20,0] <= 83.5
 PM[B19,B20,1]: c[B19,1] - c[B20,1] + 10000 delta[B19,B20,1] <= 9982
 PM[B19,B21,0]: c[B19,0] - c[B21,0] + 100 delta[B19,B21,0] <= 67.5
 PM[B19,B21,1]: c[B19,1] - c[B21,1] + 9998 delta[B19,B21,1] <= 9981
 PM[B19,B22,0]: c[B19,0] - c[B22,0] + 100 delta[B19,B22,0] <= 82
 PM[B19,B22,1]: c[B19,1] - c[B22,1] + 10000 delta[B19,B22,1] <= 9980
 PM[B19,B23,0]: c[B19,0] - c[B23,0] + 100 delta[B19,B23,0] <= 85.5
 PM[B19,B23,1]: c[B19,1] - c[B23,1] + 10000 delta[B19,B23,1] <= 9979
 PM[B19,B24,0]: c[B19,0] - c[B24,0] + 100 delta[B19,B24,0] <= 85.5
 PM[B19,B24,1]: c[B19,1] - c[B24,1] + 10000 delta[B19,B24,1] <= 9978.5
 PM[B19,B25,0]: c[B19,0] - c[B25,0] + 100 delta[B19,B25,0] <= 74.5
 PM[B19,B25,1]: c[B19,1] - c[B25,1] + 9999 delta[B19,B25,1] <= 9981.5
 PM[B19,B26,0]: c[B19,0] - c[B26,0] + 100 delta[B19,B26,0] <= 87
 PM[B19,B26,1]: c[B19,1] - c[B26,1] + 10000 delta[B19,B26,1] <= 9983.5
 PM[B19,B27,0]: c[B19,0] - c[B27,0] + 100 delta[B19,B27,0] <= 82.5
 PM[B19,B27,1]: c[B19,1] - c[B27,1] + 9997 delta[B19,B27,1] <= 9974.5
 PM[B19,B28,0]: c[B19,0] - c[B28,0] + 100 delta[B19,B28,0] <= 74
 PM[B19,B28,1]: c[B19,1] - c[B28,1] + 9997 delta[B19,B28,1] <= 9980.5
 PM[B19,B29,0]: c[B19,0] - c[B29,0] + 100 delta[B19,B29,0] <= 85.5
 PM[B19,B29,1]: c[B19,1] - c[B29,1] + 10000 delta[B19,B29,1] <= 9979.5
 PM[B19,B30,0]: c[B19,0] - c[B30,0] + 100 delta[B19,B30,0] <= 88.5
 PM[B19,B30,1]: c[B19,1] - c[B30,1] + 9992 delta[B19,B30,1] <= 9957
 PM[B19,B31,0]: c[B19,0] - c[B31,0] + 100 delta[B19,B31,0] <= 77.5
 PM[B19,B31,1]: c[B19,1] - c[B31,1] + 9999 delta[B19,B31,1] <= 9977.5
 PM[B19,B32,0]: c[B19,0] - c[B32,0] + 100 delta[B19,B32,0] <= 87.5
 PM[B19,B32,1]: c[B19,1] - c[B32,1] + 10000 delta[B19,B32,1] <= 9982.5
 PM[B19,B33,0]: c[B19,0] - c[B33,0] + 100 delta[B19,B33,0] <= 86
 PM[B19,B33,1]: c[B19,1] - c[B33,1] + 10000 delta[B19,B33,1] <= 9984
 PM[B19,B34,0]: c[B19,0] - c[B34,0] + 100 delta[B19,B34,0] <= 91
 PM[B19,B34,1]: c[B19,1] - c[B34,1] + 10000 delta[B19,B34,1] <= 9980.5
 PM[B20,B0,0]: - c[B0,0] + c[B20,0] + 95 delta[B20,B0,0] <= 73.5
 PM[B20,B0,1]: - c[B0,1] + c[B20,1] + 9999 delta[B20,B0,1] <= 9977.5
 PM[B20,B1,0]: - c[B1,0] + c[B20,0] + 100 delta[B20,B1,0] <= 75
 PM[B20,B1,1]: - c[B1,1] + c[B20,1] + 10000 delta[B20,B1,1] <= 9987.5
 PM[B20,B2,0]: - c[B2,0] + c[B20,0] + 100 delta[B20,B2,0] <= 80
 PM[B20,B2,1]: - c[B2,1] + c[B20,1] + 9999 delta[B20,B2,1] <= 9979.5
 PM[B20,B3,0]: - c[B3,0] + c[B20,0] + 100 delta[B20,B3,0] <= 75
 PM[B20,B3,1]: - c[B3,1] + c[B20,1] + 9999 delta[B20,B3,1] <= 9984.5
 PM[B20,B4,0]: - c[B4,0] + c[B20,0] + 100 delta[B20,B4,0] <= 80
 PM[B20,B4,1]: - c[B4,1] + c[B20,1] + 9999 delta[B20,B4,1] <= 9982.5
 PM[B20,B5,0]: - c[B5,0] + c[B20,0] + 97 delta[B20,B5,0] <= 77
 PM[B20,B5,1]: - c[B5,1] + c[B20,1] + 9999 delta[B20,B5,1] <= 9989
 PM[B20,B6,0]: - c[B6,0] + c[B20,0] + 94 delta[B20,B6,0] <= 69.5
 PM[B20,B6,1]: - c[B6,1] + c[B20,1] + 9999 delta[B20,B6,1] <= 9985
 PM[B20,B7,0]: - c[B7,0] + c[B20,0] + 92 delta[B20,B7,0] <= 67.5
 PM[B20,B7,1]: - c[B7,1] + c[B20,1] + 9999 delta[B20,B7,1] <= 9984
 PM[B20,B8,0]: - c[B8,0] + c[B20,0] + 100 delta[B20,B8,0] <= 79.5
 PM[B20,B8,1]: - c[B8,1] + c[B20,1] + 10000 delta[B20,B8,1] <= 9986
 PM[B20,B9,0]: - c[B9,0] + c[B20,0] + 93 delta[B20,B9,0] <= 70.5
 PM[B20,B9,1]: - c[B9,1] + c[B20,1] + 9999 delta[B20,B9,1] <= 9984.5
 PM[B20,B10,0]: - c[B10,0] + c[B20,0] + 100 delta[B20,B10,0] <= 78
 PM[B20,B10,1]: - c[B10,1] + c[B20,1] + 10000 delta[B20,B10,1] <= 9989
 PM[B20,B11,0]: - c[B11,0] + c[B20,0] + 94 delta[B20,B11,0] <= 72.5
 PM[B20,B11,1]: - c[B11,1] + c[B20,1] + 9999 delta[B20,B11,1] <= 9980
 PM[B20,B12,0]: - c[B12,0] + c[B20,0] + 100 delta[B20,B12,0] <= 73.5
 PM[B20,B12,1]: - c[B12,1] + c[B20,1] + 10000 delta[B20,B12,1] <= 9988
 PM[B20,B13,0]: - c[B13,0] + c[B20,0] + 97 delta[B20,B13,0] <= 73
 PM[B20,B13,1]: - c[B13,1] + c[B20,1] + 10000 delta[B20,B13,1] <= 9990
 PM[B20,B14,0]: - c[B14,0] + c[B20,0] + 100 delta[B20,B14,0] <= 76
 PM[B20,B14,1]: - c[B14,1] + c[B20,1] + 9999 delta[B20,B14,1] <= 9987.5
 PM[B20,B15,0]: - c[B15,0] + c[B20,0] + 100 delta[B20,B15,0] <= 75
 PM[B20,B15,1]: - c[B15,1] + c[B20,1] + 10000 delta[B20,B15,1] <= 9988
 PM[B20,B16,0]: - c[B16,0] + c[B20,0] + 100 delta[B20,B16,0] <= 76.5
 PM[B20,B16,1]: - c[B16,1] + c[B20,1] + 9999 delta[B20,B16,1] <= 9988
 PM[B20,B17,0]: - c[B17,0] + c[B20,0] + 100 delta[B20,B17,0] <= 76
 PM[B20,B17,1]: - c[B17,1] + c[B20,1] + 9999 delta[B20,B17,1] <= 9972.5
 PM[B20,B18,0]: - c[B18,0] + c[B20,0] + 91 delta[B20,B18,0] <= 57
 PM[B20,B18,1]: - c[B18,1] + c[B20,1] + 10000 delta[B20,B18,1] <= 9990.5
 PM[B20,B19,0]: - c[B19,0] + c[B20,0] + 100 delta[B20,B19,0] <= 76.5
 PM[B20,B19,1]: - c[B19,1] + c[B20,1] + 10000 delta[B20,B19,1] <= 9989
 PM[B20,B21,0]: c[B20,0] - c[B21,0] + 91 delta[B20,B21,0] <= 57
 PM[B20,B21,1]: c[B20,1] - c[B21,1] + 9999 delta[B20,B21,1] <= 9988
 PM[B20,B22,0]: c[B20,0] - c[B22,0] + 93 delta[B20,B22,0] <= 71.5
 PM[B20,B22,1]: c[B20,1] - c[B22,1] + 10000 delta[B20,B22,1] <= 9987
 PM[B20,B23,0]: c[B20,0] - c[B23,0] + 96 delta[B20,B23,0] <= 75
 PM[B20,B23,1]: c[B20,1] - c[B23,1] + 10000 delta[B20,B23,1] <= 9986
 PM[B20,B24,0]: c[B20,0] - c[B24,0] + 97 delta[B20,B24,0] <= 75
 PM[B20,B24,1]: c[B20,1] - c[B24,1] + 10000 delta[B20,B24,1] <= 9985.5
 PM[B20,B25,0]: c[B20,0] - c[B25,0] + 91 delta[B20,B25,0] <= 64
 PM[B20,B25,1]: c[B20,1] - c[B25,1] + 9999 delta[B20,B25,1] <= 9988.5
 PM[B20,B26,0]: c[B20,0] - c[B26,0] + 97 delta[B20,B26,0] <= 76.5
 PM[B20,B26,1]: c[B20,1] - c[B26,1] + 10000 delta[B20,B26,1] <= 9990.5
 PM[B20,B27,0]: c[B20,0] - c[B27,0] + 93 delta[B20,B27,0] <= 72
 PM[B20,B27,1]: c[B20,1] - c[B27,1] + 9999 delta[B20,B27,1] <= 9981.5
 PM[B20,B28,0]: c[B20,0] - c[B28,0] + 91 delta[B20,B28,0] <= 63.5
 PM[B20,B28,1]: c[B20,1] - c[B28,1] + 9999 delta[B20,B28,1] <= 9987.5
 PM[B20,B29,0]: c[B20,0] - c[B29,0] + 100 delta[B20,B29,0] <= 75
 PM[B20,B29,1]: c[B20,1] - c[B29,1] + 10000 delta[B20,B29,1] <= 9986.5
 PM[B20,B30,0]: c[B20,0] - c[B30,0] + 98 delta[B20,B30,0] <= 78
 PM[B20,B30,1]: c[B20,1] - c[B30,1] + 9999 delta[B20,B30,1] <= 9964
 PM[B20,B31,0]: c[B20,0] - c[B31,0] + 93 delta[B20,B31,0] <= 67
 PM[B20,B31,1]: c[B20,1] - c[B31,1] + 9999 delta[B20,B31,1] <= 9984.5
 PM[B20,B32,0]: c[B20,0] - c[B32,0] + 100 delta[B20,B32,0] <= 77
 PM[B20,B32,1]: c[B20,1] - c[B32,1] + 10000 delta[B20,B32,1] <= 9989.5
 PM[B20,B33,0]: c[B20,0] - c[B33,0] + 100 delta[B20,B33,0] <= 75.5
 PM[B20,B33,1]: c[B20,1] - c[B33,1] + 10000 delta[B20,B33,1] <= 9991
 PM[B20,B34,0]: c[B20,0] - c[B34,0] + 100 delta[B20,B34,0] <= 80.5
 PM[B20,B34,1]: c[B20,1] - c[B34,1] + 10000 delta[B20,B34,1] <= 9987.5
 PM[B21,B0,0]: - c[B0,0] + c[B21,0] + 100 delta[B21,B0,0] <= 79.5
 PM[B21,B0,1]: - c[B0,1] + c[B21,1] + 10000 delta[B21,B0,1] <= 9979.5
 PM[B21,B1,0]: - c[B1,0] + c[B21,0] + 100 delta[B21,B1,0] <= 81
 PM[B21,B1,1]: - c[B1,1] + c[B21,1] + 10000 delta[B21,B1,1] <= 9989.5
 PM[B21,B2,0]: - c[B2,0] + c[B21,0] + 100 delta[B21,B2,0] <= 86
 PM[B21,B2,1]: - c[B2,1] + c[B21,1] + 10000 delta[B21,B2,1] <= 9981.5
 PM[B21,B3,0]: - c[B3,0] + c[B21,0] + 100 delta[B21,B3,0] <= 81
 PM[B21,B3,1]: - c[B3,1] + c[B21,1] + 10000 delta[B21,B3,1] <= 9986.5
 PM[B21,B4,0]: - c[B4,0] + c[B21,0] + 100 delta[B21,B4,0] <= 86
 PM[B21,B4,1]: - c[B4,1] + c[B21,1] + 10000 delta[B21,B4,1] <= 9984.5
 PM[B21,B5,0]: - c[B5,0] + c[B21,0] + 100 delta[B21,B5,0] <= 83
 PM[B21,B5,1]: - c[B5,1] + c[B21,1] + 10000 delta[B21,B5,1] <= 9991
 PM[B21,B6,0]: - c[B6,0] + c[B21,0] + 100 delta[B21,B6,0] <= 75.5
 PM[B21,B6,1]: - c[B6,1] + c[B21,1] + 10000 delta[B21,B6,1] <= 9987
 PM[B21,B7,0]: - c[B7,0] + c[B21,0] + 100 delta[B21,B7,0] <= 73.5
 PM[B21,B7,1]: - c[B7,1] + c[B21,1] + 10000 delta[B21,B7,1] <= 9986
 PM[B21,B8,0]: - c[B8,0] + c[B21,0] + 100 delta[B21,B8,0] <= 85.5
 PM[B21,B8,1]: - c[B8,1] + c[B21,1] + 10000 delta[B21,B8,1] <= 9988
 PM[B21,B9,0]: - c[B9,0] + c[B21,0] + 100 delta[B21,B9,0] <= 76.5
 PM[B21,B9,1]: - c[B9,1] + c[B21,1] + 10000 delta[B21,B9,1] <= 9986.5
 PM[B21,B10,0]: - c[B10,0] + c[B21,0] + 100 delta[B21,B10,0] <= 84
 PM[B21,B10,1]: - c[B10,1] + c[B21,1] + 10000 delta[B21,B10,1] <= 9991
 PM[B21,B11,0]: - c[B11,0] + c[B21,0] + 100 delta[B21,B11,0] <= 78.5
 PM[B21,B11,1]: - c[B11,1] + c[B21,1] + 10000 delta[B21,B11,1] <= 9982
 PM[B21,B12,0]: - c[B12,0] + c[B21,0] + 100 delta[B21,B12,0] <= 79.5
 PM[B21,B12,1]: - c[B12,1] + c[B21,1] + 10000 delta[B21,B12,1] <= 9990
 PM[B21,B13,0]: - c[B13,0] + c[B21,0] + 100 delta[B21,B13,0] <= 79
 PM[B21,B13,1]: - c[B13,1] + c[B21,1] + 10000 delta[B21,B13,1] <= 9992
 PM[B21,B14,0]: - c[B14,0] + c[B21,0] + 100 delta[B21,B14,0] <= 82
 PM[B21,B14,1]: - c[B14,1] + c[B21,1] + 10000 delta[B21,B14,1] <= 9989.5
 PM[B21,B15,0]: - c[B15,0] + c[B21,0] + 100 delta[B21,B15,0] <= 81
 PM[B21,B15,1]: - c[B15,1] + c[B21,1] + 10000 delta[B21,B15,1] <= 9990
 PM[B21,B16,0]: - c[B16,0] + c[B21,0] + 100 delta[B21,B16,0] <= 82.5
 PM[B21,B16,1]: - c[B16,1] + c[B21,1] + 10000 delta[B21,B16,1] <= 9990
 PM[B21,B17,0]: - c[B17,0] + c[B21,0] + 100 delta[B21,B17,0] <= 82
 PM[B21,B17,1]: - c[B17,1] + c[B21,1] + 10000 delta[B21,B17,1] <= 9974.5
 PM[B21,B18,0]: - c[B18,0] + c[B21,0] + 100 delta[B21,B18,0] <= 63
 PM[B21,B18,1]: - c[B18,1] + c[B21,1] + 10000 delta[B21,B18,1] <= 9992.5
 PM[B21,B19,0]: - c[B19,0] + c[B21,0] + 100 delta[B21,B19,0] <= 82.5
 PM[B21,B19,1]: - c[B19,1] + c[B21,1] + 10000 delta[B21,B19,1] <= 9991
 PM[B21,B20,0]: - c[B20,0] + c[B21,0] + 100 delta[B21,B20,0] <= 79
 PM[B21,B20,1]: - c[B20,1] + c[B21,1] + 10000 delta[B21,B20,1] <= 9991
 PM[B21,B22,0]: c[B21,0] - c[B22,0] + 100 delta[B21,B22,0] <= 77.5
 PM[B21,B22,1]: c[B21,1] - c[B22,1] + 10000 delta[B21,B22,1] <= 9989
 PM[B21,B23,0]: c[B21,0] - c[B23,0] + 100 delta[B21,B23,0] <= 81
 PM[B21,B23,1]: c[B21,1] - c[B23,1] + 10000 delta[B21,B23,1] <= 9988
 PM[B21,B24,0]: c[B21,0] - c[B24,0] + 100 delta[B21,B24,0] <= 81
 PM[B21,B24,1]: c[B21,1] - c[B24,1] + 10000 delta[B21,B24,1] <= 9987.5
 PM[B21,B25,0]: c[B21,0] - c[B25,0] + 100 delta[B21,B25,0] <= 70
 PM[B21,B25,1]: c[B21,1] - c[B25,1] + 10000 delta[B21,B25,1] <= 9990.5
 PM[B21,B26,0]: c[B21,0] - c[B26,0] + 100 delta[B21,B26,0] <= 82.5
 PM[B21,B26,1]: c[B21,1] - c[B26,1] + 10000 delta[B21,B26,1] <= 9992.5
 PM[B21,B27,0]: c[B21,0] - c[B27,0] + 100 delta[B21,B27,0] <= 78
 PM[B21,B27,1]: c[B21,1] - c[B27,1] + 10000 delta[B21,B27,1] <= 9983.5
 PM[B21,B28,0]: c[B21,0] - c[B28,0] + 100 delta[B21,B28,0] <= 69.5
 PM[B21,B28,1]: c[B21,1] - c[B28,1] + 10000 delta[B21,B28,1] <= 9989.5
 PM[B21,B29,0]: c[B21,0] - c[B29,0] + 100 delta[B21,B29,0] <= 81
 PM[B21,B29,1]: c[B21,1] - c[B29,1] + 10000 delta[B21,B29,1] <= 9988.5
 PM[B21,B30,0]: c[B21,0] - c[B30,0] + 100 delta[B21,B30,0] <= 84
 PM[B21,B30,1]: c[B21,1] - c[B30,1] + 10000 delta[B21,B30,1] <= 9966
 PM[B21,B31,0]: c[B21,0] - c[B31,0] + 100 delta[B21,B31,0] <= 73
 PM[B21,B31,1]: c[B21,1] - c[B31,1] + 10000 delta[B21,B31,1] <= 9986.5
 PM[B21,B32,0]: c[B21,0] - c[B32,0] + 100 delta[B21,B32,0] <= 83
 PM[B21,B32,1]: c[B21,1] - c[B32,1] + 10000 delta[B21,B32,1] <= 9991.5
 PM[B21,B33,0]: c[B21,0] - c[B33,0] + 100 delta[B21,B33,0] <= 81.5
 PM[B21,B33,1]: c[B21,1] - c[B33,1] + 10000 delta[B21,B33,1] <= 9993
 PM[B21,B34,0]: c[B21,0] - c[B34,0] + 100 delta[B21,B34,0] <= 86.5
 PM[B21,B34,1]: c[B21,1] - c[B34,1] + 10000 delta[B21,B34,1] <= 9989.5
 PM[B22,B0,0]: - c[B0,0] + c[B22,0] + 100 delta[B22,B0,0] <= 86
 PM[B22,B0,1]: - c[B0,1] + c[B22,1] + 10000 delta[B22,B0,1] <= 9976.5
 PM[B22,B1,0]: - c[B1,0] + c[B22,0] + 100 delta[B22,B1,0] <= 87.5
 PM[B22,B1,1]: - c[B1,1] + c[B22,1] + 10000 delta[B22,B1,1] <= 9986.5
 PM[B22,B2,0]: - c[B2,0] + c[B22,0] + 100 delta[B22,B2,0] <= 92.5
 PM[B22,B2,1]: - c[B2,1] + c[B22,1] + 10000 delta[B22,B2,1] <= 9978.5
 PM[B22,B3,0]: - c[B3,0] + c[B22,0] + 100 delta[B22,B3,0] <= 87.5
 PM[B22,B3,1]: - c[B3,1] + c[B22,1] + 10000 delta[B22,B3,1] <= 9983.5
 PM[B22,B4,0]: - c[B4,0] + c[B22,0] + 100 delta[B22,B4,0] <= 92.5
 PM[B22,B4,1]: - c[B4,1] + c[B22,1] + 10000 delta[B22,B4,1] <= 9981.5
 PM[B22,B5,0]: - c[B5,0] + c[B22,0] + 100 delta[B22,B5,0] <= 89.5
 PM[B22,B5,1]: - c[B5,1] + c[B22,1] + 10000 delta[B22,B5,1] <= 9988
 PM[B22,B6,0]: - c[B6,0] + c[B22,0] + 100 delta[B22,B6,0] <= 82
 PM[B22,B6,1]: - c[B6,1] + c[B22,1] + 10000 delta[B22,B6,1] <= 9984
 PM[B22,B7,0]: - c[B7,0] + c[B22,0] + 100 delta[B22,B7,0] <= 80
 PM[B22,B7,1]: - c[B7,1] + c[B22,1] + 10000 delta[B22,B7,1] <= 9983
 PM[B22,B8,0]: - c[B8,0] + c[B22,0] + 100 delta[B22,B8,0] <= 92
 PM[B22,B8,1]: - c[B8,1] + c[B22,1] + 10000 delta[B22,B8,1] <= 9985
 PM[B22,B9,0]: - c[B9,0] + c[B22,0] + 100 delta[B22,B9,0] <= 83
 PM[B22,B9,1]: - c[B9,1] + c[B22,1] + 10000 delta[B22,B9,1] <= 9983.5
 PM[B22,B10,0]: - c[B10,0] + c[B22,0] + 100 delta[B22,B10,0] <= 90.5
 PM[B22,B10,1]: - c[B10,1] + c[B22,1] + 10000 delta[B22,B10,1] <= 9988
 PM[B22,B11,0]: - c[B11,0] + c[B22,0] + 100 delta[B22,B11,0] <= 85
 PM[B22,B11,1]: - c[B11,1] + c[B22,1] + 10000 delta[B22,B11,1] <= 9979
 PM[B22,B12,0]: - c[B12,0] + c[B22,0] + 100 delta[B22,B12,0] <= 86
 PM[B22,B12,1]: - c[B12,1] + c[B22,1] + 10000 delta[B22,B12,1] <= 9987
 PM[B22,B13,0]: - c[B13,0] + c[B22,0] + 100 delta[B22,B13,0] <= 85.5
 PM[B22,B13,1]: - c[B13,1] + c[B22,1] + 10000 delta[B22,B13,1] <= 9989
 PM[B22,B14,0]: - c[B14,0] + c[B22,0] + 100 delta[B22,B14,0] <= 88.5
 PM[B22,B14,1]: - c[B14,1] + c[B22,1] + 10000 delta[B22,B14,1] <= 9986.5
 PM[B22,B15,0]: - c[B15,0] + c[B22,0] + 100 delta[B22,B15,0] <= 87.5
 PM[B22,B15,1]: - c[B15,1] + c[B22,1] + 10000 delta[B22,B15,1] <= 9987
 PM[B22,B16,0]: - c[B16,0] + c[B22,0] + 100 delta[B22,B16,0] <= 89
 PM[B22,B16,1]: - c[B16,1] + c[B22,1] + 10000 delta[B22,B16,1] <= 9987
 PM[B22,B17,0]: - c[B17,0] + c[B22,0] + 100 delta[B22,B17,0] <= 88.5
 PM[B22,B17,1]: - c[B17,1] + c[B22,1] + 10000 delta[B22,B17,1] <= 9971.5
 PM[B22,B18,0]: - c[B18,0] + c[B22,0] + 100 delta[B22,B18,0] <= 69.5
 PM[B22,B18,1]: - c[B18,1] + c[B22,1] + 10000 delta[B22,B18,1] <= 9989.5
 PM[B22,B19,0]: - c[B19,0] + c[B22,0] + 100 delta[B22,B19,0] <= 89
 PM[B22,B19,1]: - c[B19,1] + c[B22,1] + 10000 delta[B22,B19,1] <= 9988
 PM[B22,B20,0]: - c[B20,0] + c[B22,0] + 100 delta[B22,B20,0] <= 85.5
 PM[B22,B20,1]: - c[B20,1] + c[B22,1] + 10000 delta[B22,B20,1] <= 9988
 PM[B22,B21,0]: - c[B21,0] + c[B22,0] + 100 delta[B22,B21,0] <= 69.5
 PM[B22,B21,1]: - c[B21,1] + c[B22,1] + 10000 delta[B22,B21,1] <= 9987
 PM[B22,B23,0]: c[B22,0] - c[B23,0] + 100 delta[B22,B23,0] <= 87.5
 PM[B22,B23,1]: c[B22,1] - c[B23,1] + 10000 delta[B22,B23,1] <= 9985
 PM[B22,B24,0]: c[B22,0] - c[B24,0] + 100 delta[B22,B24,0] <= 87.5
 PM[B22,B24,1]: c[B22,1] - c[B24,1] + 10000 delta[B22,B24,1] <= 9984.5
 PM[B22,B25,0]: c[B22,0] - c[B25,0] + 100 delta[B22,B25,0] <= 76.5
 PM[B22,B25,1]: c[B22,1] - c[B25,1] + 10000 delta[B22,B25,1] <= 9987.5
 PM[B22,B26,0]: c[B22,0] - c[B26,0] + 100 delta[B22,B26,0] <= 89
 PM[B22,B26,1]: c[B22,1] - c[B26,1] + 10000 delta[B22,B26,1] <= 9989.5
 PM[B22,B27,0]: c[B22,0] - c[B27,0] + 100 delta[B22,B27,0] <= 84.5
 PM[B22,B27,1]: c[B22,1] - c[B27,1] + 10000 delta[B22,B27,1] <= 9980.5
 PM[B22,B28,0]: c[B22,0] - c[B28,0] + 100 delta[B22,B28,0] <= 76
 PM[B22,B28,1]: c[B22,1] - c[B28,1] + 10000 delta[B22,B28,1] <= 9986.5
 PM[B22,B29,0]: c[B22,0] - c[B29,0] + 100 delta[B22,B29,0] <= 87.5
 PM[B22,B29,1]: c[B22,1] - c[B29,1] + 10000 delta[B22,B29,1] <= 9985.5
 PM[B22,B30,0]: c[B22,0] - c[B30,0] + 100 delta[B22,B30,0] <= 90.5
 PM[B22,B30,1]: c[B22,1] - c[B30,1] + 10000 delta[B22,B30,1] <= 9963
 PM[B22,B31,0]: c[B22,0] - c[B31,0] + 100 delta[B22,B31,0] <= 79.5
 PM[B22,B31,1]: c[B22,1] - c[B31,1] + 10000 delta[B22,B31,1] <= 9983.5
 PM[B22,B32,0]: c[B22,0] - c[B32,0] + 100 delta[B22,B32,0] <= 89.5
 PM[B22,B32,1]: c[B22,1] - c[B32,1] + 10000 delta[B22,B32,1] <= 9988.5
 PM[B22,B33,0]: c[B22,0] - c[B33,0] + 100 delta[B22,B33,0] <= 88
 PM[B22,B33,1]: c[B22,1] - c[B33,1] + 10000 delta[B22,B33,1] <= 9990
 PM[B22,B34,0]: c[B22,0] - c[B34,0] + 100 delta[B22,B34,0] <= 93
 PM[B22,B34,1]: c[B22,1] - c[B34,1] + 10000 delta[B22,B34,1] <= 9986.5
 PM[B23,B0,0]: - c[B0,0] + c[B23,0] + 95 delta[B23,B0,0] <= 79.5
 PM[B23,B0,1]: - c[B0,1] + c[B23,1] + 9996 delta[B23,B0,1] <= 9971.5
 PM[B23,B1,0]: - c[B1,0] + c[B23,0] + 100 delta[B23,B1,0] <= 81
 PM[B23,B1,1]: - c[B1,1] + c[B23,1] + 10000 delta[B23,B1,1] <= 9981.5
 PM[B23,B2,0]: - c[B2,0] + c[B23,0] + 100 delta[B23,B2,0] <= 86
 PM[B23,B2,1]: - c[B2,1] + c[B23,1] + 9996 delta[B23,B2,1] <= 9973.5
 PM[B23,B3,0]: - c[B3,0] + c[B23,0] + 100 delta[B23,B3,0] <= 81
 PM[B23,B3,1]: - c[B3,1] + c[B23,1] + 9997 delta[B23,B3,1] <= 9978.5
 PM[B23,B4,0]: - c[B4,0] + c[B23,0] + 100 delta[B23,B4,0] <= 86
 PM[B23,B4,1]: - c[B4,1] + c[B23,1] + 9996 delta[B23,B4,1] <= 9976.5
 PM[B23,B5,0]: - c[B5,0] + c[B23,0] + 97 delta[B23,B5,0] <= 83
 PM[B23,B5,1]: - c[B5,1] + c[B23,1] + 9998 delta[B23,B5,1] <= 9983
 PM[B23,B6,0]: - c[B6,0] + c[B23,0] + 94 delta[B23,B6,0] <= 75.5
 PM[B23,B6,1]: - c[B6,1] + c[B23,1] + 9996 delta[B23,B6,1] <= 9979
 PM[B23,B7,0]: - c[B7,0] + c[B23,0] + 93 delta[B23,B7,0] <= 73.5
 PM[B23,B7,1]: - c[B7,1] + c[B23,1] + 9996 delta[B23,B7,1] <= 9978
 PM[B23,B8,0]: - c[B8,0] + c[B23,0] + 100 delta[B23,B8,0] <= 85.5
 PM[B23,B8,1]: - c[B8,1] + c[B23,1] + 10000 delta[B23,B8,1] <= 9980
 PM[B23,B9,0]: - c[B9,0] + c[B23,0] + 93 delta[B23,B9,0] <= 76.5
 PM[B23,B9,1]: - c[B9,1] + c[B23,1] + 9996 delta[B23,B9,1] <= 9978.5
 PM[B23,B10,0]: - c[B10,0] + c[B23,0] + 100 delta[B23,B10,0] <= 84
 PM[B23,B10,1]: - c[B10,1] + c[B23,1] + 10000 delta[B23,B10,1] <= 9983
 PM[B23,B11,0]: - c[B11,0] + c[B23,0] + 94 delta[B23,B11,0] <= 78.5
 PM[B23,B11,1]: - c[B11,1] + c[B23,1] + 9996 delta[B23,B11,1] <= 9974
 PM[B23,B12,0]: - c[B12,0] + c[B23,0] + 100 delta[B23,B12,0] <= 79.5
 PM[B23,B12,1]: - c[B12,1] + c[B23,1] + 10000 delta[B23,B12,1] <= 9982
 PM[B23,B13,0]: - c[B13,0] + c[B23,0] + 97 delta[B23,B13,0] <= 79
 PM[B23,B13,1]: - c[B13,1] + c[B23,1] + 10000 delta[B23,B13,1] <= 9984
 PM[B23,B14,0]: - c[B14,0] + c[B23,0] + 100 delta[B23,B14,0] <= 82
 PM[B23,B14,1]: - c[B14,1] + c[B23,1] + 9998 delta[B23,B14,1] <= 9981.5
 PM[B23,B15,0]: - c[B15,0] + c[B23,0] + 100 delta[B23,B15,0] <= 81
 PM[B23,B15,1]: - c[B15,1] + c[B23,1] + 10000 delta[B23,B15,1] <= 9982
 PM[B23,B16,0]: - c[B16,0] + c[B23,0] + 100 delta[B23,B16,0] <= 82.5
 PM[B23,B16,1]: - c[B16,1] + c[B23,1] + 9998 delta[B23,B16,1] <= 9982
 PM[B23,B17,0]: - c[B17,0] + c[B23,0] + 100 delta[B23,B17,0] <= 82
 PM[B23,B17,1]: - c[B17,1] + c[B23,1] + 9996 delta[B23,B17,1] <= 9966.5
 PM[B23,B18,0]: - c[B18,0] + c[B23,0] + 93 delta[B23,B18,0] <= 63
 PM[B23,B18,1]: - c[B18,1] + c[B23,1] + 10000 delta[B23,B18,1] <= 9984.5
 PM[B23,B19,0]: - c[B19,0] + c[B23,0] + 100 delta[B23,B19,0] <= 82.5
 PM[B23,B19,1]: - c[B19,1] + c[B23,1] + 10000 delta[B23,B19,1] <= 9983
 PM[B23,B20,0]: - c[B20,0] + c[B23,0] + 98 delta[B23,B20,0] <= 79
 PM[B23,B20,1]: - c[B20,1] + c[B23,1] + 10000 delta[B23,B20,1] <= 9983
 PM[B23,B21,0]: - c[B21,0] + c[B23,0] + 93 delta[B23,B21,0] <= 63
 PM[B23,B21,1]: - c[B21,1] + c[B23,1] + 9998 delta[B23,B21,1] <= 9982
 PM[B23,B22,0]: - c[B22,0] + c[B23,0] + 93 delta[B23,B22,0] <= 77.5
 PM[B23,B22,1]: - c[B22,1] + c[B23,1] + 10000 delta[B23,B22,1] <= 9981
 PM[B23,B24,0]: c[B23,0] - c[B24,0] + 97 delta[B23,B24,0] <= 81
 PM[B23,B24,1]: c[B23,1] - c[B24,1] + 10000 delta[B23,B24,1] <= 9979.5
 PM[B23,B25,0]: c[B23,0] - c[B25,0] + 93 delta[B23,B25,0] <= 70
 PM[B23,B25,1]: c[B23,1] - c[B25,1] + 9999 delta[B23,B25,1] <= 9982.5
 PM[B23,B26,0]: c[B23,0] - c[B26,0] + 97 delta[B23,B26,0] <= 82.5
 PM[B23,B26,1]: c[B23,1] - c[B26,1] + 10000 delta[B23,B26,1] <= 9984.5
 PM[B23,B27,0]: c[B23,0] - c[B27,0] + 93 delta[B23,B27,0] <= 78
 PM[B23,B27,1]: c[B23,1] - c[B27,1] + 9997 delta[B23,B27,1] <= 9975.5
 PM[B23,B28,0]: c[B23,0] - c[B28,0] + 93 delta[B23,B28,0] <= 69.5
 PM[B23,B28,1]: c[B23,1] - c[B28,1] + 9997 delta[B23,B28,1] <= 9981.5
 PM[B23,B29,0]: c[B23,0] - c[B29,0] + 100 delta[B23,B29,0] <= 81
 PM[B23,B29,1]: c[B23,1] - c[B29,1] + 10000 delta[B23,B29,1] <= 9980.5
 PM[B23,B30,0]: c[B23,0] - c[B30,0] + 98 delta[B23,B30,0] <= 84
 PM[B23,B30,1]: c[B23,1] - c[B30,1] + 9996 delta[B23,B30,1] <= 9958
 PM[B23,B31,0]: c[B23,0] - c[B31,0] + 93 delta[B23,B31,0] <= 73
 PM[B23,B31,1]: c[B23,1] - c[B31,1] + 9999 delta[B23,B31,1] <= 9978.5
 PM[B23,B32,0]: c[B23,0] - c[B32,0] + 100 delta[B23,B32,0] <= 83
 PM[B23,B32,1]: c[B23,1] - c[B32,1] + 10000 delta[B23,B32,1] <= 9983.5
 PM[B23,B33,0]: c[B23,0] - c[B33,0] + 100 delta[B23,B33,0] <= 81.5
 PM[B23,B33,1]: c[B23,1] - c[B33,1] + 10000 delta[B23,B33,1] <= 9985
 PM[B23,B34,0]: c[B23,0] - c[B34,0] + 100 delta[B23,B34,0] <= 86.5
 PM[B23,B34,1]: c[B23,1] - c[B34,1] + 10000 delta[B23,B34,1] <= 9981.5
 PM[B24,B0,0]: - c[B0,0] + c[B24,0] + 100 delta[B24,B0,0] <= 85.5
 PM[B24,B0,1]: - c[B0,1] + c[B24,1] + 10000 delta[B24,B0,1] <= 9975
 PM[B24,B1,0]: - c[B1,0] + c[B24,0] + 100 delta[B24,B1,0] <= 87
 PM[B24,B1,1]: - c[B1,1] + c[B24,1] + 10000 delta[B24,B1,1] <= 9985
 PM[B24,B2,0]: - c[B2,0] + c[B24,0] + 100 delta[B24,B2,0] <= 92
 PM[B24,B2,1]: - c[B2,1] + c[B24,1] + 10000 delta[B24,B2,1] <= 9977
 PM[B24,B3,0]: - c[B3,0] + c[B24,0] + 100 delta[B24,B3,0] <= 87
 PM[B24,B3,1]: - c[B3,1] + c[B24,1] + 10000 delta[B24,B3,1] <= 9982
 PM[B24,B4,0]: - c[B4,0] + c[B24,0] + 100 delta[B24,B4,0] <= 92
 PM[B24,B4,1]: - c[B4,1] + c[B24,1] + 10000 delta[B24,B4,1] <= 9980
 PM[B24,B5,0]: - c[B5,0] + c[B24,0] + 100 delta[B24,B5,0] <= 89
 PM[B24,B5,1]: - c[B5,1] + c[B24,1] + 10000 delta[B24,B5,1] <= 9986.5
 PM[B24,B6,0]: - c[B6,0] + c[B24,0] + 100 delta[B24,B6,0] <= 81.5
 PM[B24,B6,1]: - c[B6,1] + c[B24,1] + 10000 delta[B24,B6,1] <= 9982.5
 PM[B24,B7,0]: - c[B7,0] + c[B24,0] + 100 delta[B24,B7,0] <= 79.5
 PM[B24,B7,1]: - c[B7,1] + c[B24,1] + 10000 delta[B24,B7,1] <= 9981.5
 PM[B24,B8,0]: - c[B8,0] + c[B24,0] + 100 delta[B24,B8,0] <= 91.5
 PM[B24,B8,1]: - c[B8,1] + c[B24,1] + 10000 delta[B24,B8,1] <= 9983.5
 PM[B24,B9,0]: - c[B9,0] + c[B24,0] + 100 delta[B24,B9,0] <= 82.5
 PM[B24,B9,1]: - c[B9,1] + c[B24,1] + 10000 delta[B24,B9,1] <= 9982
 PM[B24,B10,0]: - c[B10,0] + c[B24,0] + 100 delta[B24,B10,0] <= 90
 PM[B24,B10,1]: - c[B10,1] + c[B24,1] + 10000 delta[B24,B10,1] <= 9986.5
 PM[B24,B11,0]: - c[B11,0] + c[B24,0] + 100 delta[B24,B11,0] <= 84.5
 PM[B24,B11,1]: - c[B11,1] + c[B24,1] + 10000 delta[B24,B11,1] <= 9977.5
 PM[B24,B12,0]: - c[B12,0] + c[B24,0] + 100 delta[B24,B12,0] <= 85.5
 PM[B24,B12,1]: - c[B12,1] + c[B24,1] + 10000 delta[B24,B12,1] <= 9985.5
 PM[B24,B13,0]: - c[B13,0] + c[B24,0] + 100 delta[B24,B13,0] <= 85
 PM[B24,B13,1]: - c[B13,1] + c[B24,1] + 10000 delta[B24,B13,1] <= 9987.5
 PM[B24,B14,0]: - c[B14,0] + c[B24,0] + 100 delta[B24,B14,0] <= 88
 PM[B24,B14,1]: - c[B14,1] + c[B24,1] + 10000 delta[B24,B14,1] <= 9985
 PM[B24,B15,0]: - c[B15,0] + c[B24,0] + 100 delta[B24,B15,0] <= 87
 PM[B24,B15,1]: - c[B15,1] + c[B24,1] + 10000 delta[B24,B15,1] <= 9985.5
 PM[B24,B16,0]: - c[B16,0] + c[B24,0] + 100 delta[B24,B16,0] <= 88.5
 PM[B24,B16,1]: - c[B16,1] + c[B24,1] + 10000 delta[B24,B16,1] <= 9985.5
 PM[B24,B17,0]: - c[B17,0] + c[B24,0] + 100 delta[B24,B17,0] <= 88
 PM[B24,B17,1]: - c[B17,1] + c[B24,1] + 10000 delta[B24,B17,1] <= 9970
 PM[B24,B18,0]: - c[B18,0] + c[B24,0] + 100 delta[B24,B18,0] <= 69
 PM[B24,B18,1]: - c[B18,1] + c[B24,1] + 10000 delta[B24,B18,1] <= 9988
 PM[B24,B19,0]: - c[B19,0] + c[B24,0] + 100 delta[B24,B19,0] <= 88.5
 PM[B24,B19,1]: - c[B19,1] + c[B24,1] + 10000 delta[B24,B19,1] <= 9986.5
 PM[B24,B20,0]: - c[B20,0] + c[B24,0] + 100 delta[B24,B20,0] <= 85
 PM[B24,B20,1]: - c[B20,1] + c[B24,1] + 10000 delta[B24,B20,1] <= 9986.5
 PM[B24,B21,0]: - c[B21,0] + c[B24,0] + 100 delta[B24,B21,0] <= 69
 PM[B24,B21,1]: - c[B21,1] + c[B24,1] + 10000 delta[B24,B21,1] <= 9985.5
 PM[B24,B22,0]: - c[B22,0] + c[B24,0] + 100 delta[B24,B22,0] <= 83.5
 PM[B24,B22,1]: - c[B22,1] + c[B24,1] + 10000 delta[B24,B22,1] <= 9984.5
 PM[B24,B23,0]: - c[B23,0] + c[B24,0] + 100 delta[B24,B23,0] <= 87
 PM[B24,B23,1]: - c[B23,1] + c[B24,1] + 10000 delta[B24,B23,1] <= 9983.5
 PM[B24,B25,0]: c[B24,0] - c[B25,0] + 100 delta[B24,B25,0] <= 76
 PM[B24,B25,1]: c[B24,1] - c[B25,1] + 10000 delta[B24,B25,1] <= 9986
 PM[B24,B26,0]: c[B24,0] - c[B26,0] + 100 delta[B24,B26,0] <= 88.5
 PM[B24,B26,1]: c[B24,1] - c[B26,1] + 10000 delta[B24,B26,1] <= 9988
 PM[B24,B27,0]: c[B24,0] - c[B27,0] + 100 delta[B24,B27,0] <= 84
 PM[B24,B27,1]: c[B24,1] - c[B27,1] + 10000 delta[B24,B27,1] <= 9979
 PM[B24,B28,0]: c[B24,0] - c[B28,0] + 100 delta[B24,B28,0] <= 75.5
 PM[B24,B28,1]: c[B24,1] - c[B28,1] + 10000 delta[B24,B28,1] <= 9985
 PM[B24,B29,0]: c[B24,0] - c[B29,0] + 100 delta[B24,B29,0] <= 87
 PM[B24,B29,1]: c[B24,1] - c[B29,1] + 10000 delta[B24,B29,1] <= 9984
 PM[B24,B30,0]: c[B24,0] - c[B30,0] + 100 delta[B24,B30,0] <= 90
 PM[B24,B30,1]: c[B24,1] - c[B30,1] + 10000 delta[B24,B30,1] <= 9961.5
 PM[B24,B31,0]: c[B24,0] - c[B31,0] + 100 delta[B24,B31,0] <= 79
 PM[B24,B31,1]: c[B24,1] - c[B31,1] + 10000 delta[B24,B31,1] <= 9982
 PM[B24,B32,0]: c[B24,0] - c[B32,0] + 100 delta[B24,B32,0] <= 89
 PM[B24,B32,1]: c[B24,1] - c[B32,1] + 10000 delta[B24,B32,1] <= 9987
 PM[B24,B33,0]: c[B24,0] - c[B33,0] + 100 delta[B24,B33,0] <= 87.5
 PM[B24,B33,1]: c[B24,1] - c[B33,1] + 10000 delta[B24,B33,1] <= 9988.5
 PM[B24,B34,0]: c[B24,0] - c[B34,0] + 100 delta[B24,B34,0] <= 92.5
 PM[B24,B34,1]: c[B24,1] - c[B34,1] + 10000 delta[B24,B34,1] <= 9985
 PM[B25,B0,0]: - c[B0,0] + c[B25,0] + 100 delta[B25,B0,0] <= 82.5
 PM[B25,B0,1]: - c[B0,1] + c[B25,1] + 10000 delta[B25,B0,1] <= 9979
 PM[B25,B1,0]: - c[B1,0] + c[B25,0] + 100 delta[B25,B1,0] <= 84
 PM[B25,B1,1]: - c[B1,1] + c[B25,1] + 10000 delta[B25,B1,1] <= 9989
 PM[B25,B2,0]: - c[B2,0] + c[B25,0] + 100 delta[B25,B2,0] <= 89
 PM[B25,B2,1]: - c[B2,1] + c[B25,1] + 10000 delta[B25,B2,1] <= 9981
 PM[B25,B3,0]: - c[B3,0] + c[B25,0] + 100 delta[B25,B3,0] <= 84
 PM[B25,B3,1]: - c[B3,1] + c[B25,1] + 10000 delta[B25,B3,1] <= 9986
 PM[B25,B4,0]: - c[B4,0] + c[B25,0] + 100 delta[B25,B4,0] <= 89
 PM[B25,B4,1]: - c[B4,1] + c[B25,1] + 10000 delta[B25,B4,1] <= 9984
 PM[B25,B5,0]: - c[B5,0] + c[B25,0] + 100 delta[B25,B5,0] <= 86
 PM[B25,B5,1]: - c[B5,1] + c[B25,1] + 10000 delta[B25,B5,1] <= 9990.5
 PM[B25,B6,0]: - c[B6,0] + c[B25,0] + 100 delta[B25,B6,0] <= 78.5
 PM[B25,B6,1]: - c[B6,1] + c[B25,1] + 10000 delta[B25,B6,1] <= 9986.5
 PM[B25,B7,0]: - c[B7,0] + c[B25,0] + 100 delta[B25,B7,0] <= 76.5
 PM[B25,B7,1]: - c[B7,1] + c[B25,1] + 10000 delta[B25,B7,1] <= 9985.5
 PM[B25,B8,0]: - c[B8,0] + c[B25,0] + 100 delta[B25,B8,0] <= 88.5
 PM[B25,B8,1]: - c[B8,1] + c[B25,1] + 10000 delta[B25,B8,1] <= 9987.5
 PM[B25,B9,0]: - c[B9,0] + c[B25,0] + 100 delta[B25,B9,0] <= 79.5
 PM[B25,B9,1]: - c[B9,1] + c[B25,1] + 10000 delta[B25,B9,1] <= 9986
 PM[B25,B10,0]: - c[B10,0] + c[B25,0] + 100 delta[B25,B10,0] <= 87
 PM[B25,B10,1]: - c[B10,1] + c[B25,1] + 10000 delta[B25,B10,1] <= 9990.5
 PM[B25,B11,0]: - c[B11,0] + c[B25,0] + 100 delta[B25,B11,0] <= 81.5
 PM[B25,B11,1]: - c[B11,1] + c[B25,1] + 10000 delta[B25,B11,1] <= 9981.5
 PM[B25,B12,0]: - c[B12,0] + c[B25,0] + 100 delta[B25,B12,0] <= 82.5
 PM[B25,B12,1]: - c[B12,1] + c[B25,1] + 10000 delta[B25,B12,1] <= 9989.5
 PM[B25,B13,0]: - c[B13,0] + c[B25,0] + 100 delta[B25,B13,0] <= 82
 PM[B25,B13,1]: - c[B13,1] + c[B25,1] + 10000 delta[B25,B13,1] <= 9991.5
 PM[B25,B14,0]: - c[B14,0] + c[B25,0] + 100 delta[B25,B14,0] <= 85
 PM[B25,B14,1]: - c[B14,1] + c[B25,1] + 10000 delta[B25,B14,1] <= 9989
 PM[B25,B15,0]: - c[B15,0] + c[B25,0] + 100 delta[B25,B15,0] <= 84
 PM[B25,B15,1]: - c[B15,1] + c[B25,1] + 10000 delta[B25,B15,1] <= 9989.5
 PM[B25,B16,0]: - c[B16,0] + c[B25,0] + 100 delta[B25,B16,0] <= 85.5
 PM[B25,B16,1]: - c[B16,1] + c[B25,1] + 10000 delta[B25,B16,1] <= 9989.5
 PM[B25,B17,0]: - c[B17,0] + c[B25,0] + 100 delta[B25,B17,0] <= 85
 PM[B25,B17,1]: - c[B17,1] + c[B25,1] + 10000 delta[B25,B17,1] <= 9974
 PM[B25,B18,0]: - c[B18,0] + c[B25,0] + 100 delta[B25,B18,0] <= 66
 PM[B25,B18,1]: - c[B18,1] + c[B25,1] + 10000 delta[B25,B18,1] <= 9992
 PM[B25,B19,0]: - c[B19,0] + c[B25,0] + 100 delta[B25,B19,0] <= 85.5
 PM[B25,B19,1]: - c[B19,1] + c[B25,1] + 10000 delta[B25,B19,1] <= 9990.5
 PM[B25,B20,0]: - c[B20,0] + c[B25,0] + 100 delta[B25,B20,0] <= 82
 PM[B25,B20,1]: - c[B20,1] + c[B25,1] + 10000 delta[B25,B20,1] <= 9990.5
 PM[B25,B21,0]: - c[B21,0] + c[B25,0] + 100 delta[B25,B21,0] <= 66
 PM[B25,B21,1]: - c[B21,1] + c[B25,1] + 10000 delta[B25,B21,1] <= 9989.5
 PM[B25,B22,0]: - c[B22,0] + c[B25,0] + 100 delta[B25,B22,0] <= 80.5
 PM[B25,B22,1]: - c[B22,1] + c[B25,1] + 10000 delta[B25,B22,1] <= 9988.5
 PM[B25,B23,0]: - c[B23,0] + c[B25,0] + 100 delta[B25,B23,0] <= 84
 PM[B25,B23,1]: - c[B23,1] + c[B25,1] + 10000 delta[B25,B23,1] <= 9987.5
 PM[B25,B24,0]: - c[B24,0] + c[B25,0] + 100 delta[B25,B24,0] <= 84
 PM[B25,B24,1]: - c[B24,1] + c[B25,1] + 10000 delta[B25,B24,1] <= 9987
 PM[B25,B26,0]: c[B25,0] - c[B26,0] + 100 delta[B25,B26,0] <= 85.5
 PM[B25,B26,1]: c[B25,1] - c[B26,1] + 10000 delta[B25,B26,1] <= 9992
 PM[B25,B27,0]: c[B25,0] - c[B27,0] + 100 delta[B25,B27,0] <= 81
 PM[B25,B27,1]: c[B25,1] - c[B27,1] + 10000 delta[B25,B27,1] <= 9983
 PM[B25,B28,0]: c[B25,0] - c[B28,0] + 100 delta[B25,B28,0] <= 72.5
 PM[B25,B28,1]: c[B25,1] - c[B28,1] + 10000 delta[B25,B28,1] <= 9989
 PM[B25,B29,0]: c[B25,0] - c[B29,0] + 100 delta[B25,B29,0] <= 84
 PM[B25,B29,1]: c[B25,1] - c[B29,1] + 10000 delta[B25,B29,1] <= 9988
 PM[B25,B30,0]: c[B25,0] - c[B30,0] + 100 delta[B25,B30,0] <= 87
 PM[B25,B30,1]: c[B25,1] - c[B30,1] + 10000 delta[B25,B30,1] <= 9965.5
 PM[B25,B31,0]: c[B25,0] - c[B31,0] + 100 delta[B25,B31,0] <= 76
 PM[B25,B31,1]: c[B25,1] - c[B31,1] + 10000 delta[B25,B31,1] <= 9986
 PM[B25,B32,0]: c[B25,0] - c[B32,0] + 100 delta[B25,B32,0] <= 86
 PM[B25,B32,1]: c[B25,1] - c[B32,1] + 10000 delta[B25,B32,1] <= 9991
 PM[B25,B33,0]: c[B25,0] - c[B33,0] + 100 delta[B25,B33,0] <= 84.5
 PM[B25,B33,1]: c[B25,1] - c[B33,1] + 10000 delta[B25,B33,1] <= 9992.5
 PM[B25,B34,0]: c[B25,0] - c[B34,0] + 100 delta[B25,B34,0] <= 89.5
 PM[B25,B34,1]: c[B25,1] - c[B34,1] + 10000 delta[B25,B34,1] <= 9989
 PM[B26,B0,0]: - c[B0,0] + c[B26,0] + 100 delta[B26,B0,0] <= 87
 PM[B26,B0,1]: - c[B0,1] + c[B26,1] + 9999 delta[B26,B0,1] <= 9979
 PM[B26,B1,0]: - c[B1,0] + c[B26,0] + 100 delta[B26,B1,0] <= 88.5
 PM[B26,B1,1]: - c[B1,1] + c[B26,1] + 10000 delta[B26,B1,1] <= 9989
 PM[B26,B2,0]: - c[B2,0] + c[B26,0] + 100 delta[B26,B2,0] <= 93.5
 PM[B26,B2,1]: - c[B2,1] + c[B26,1] + 9999 delta[B26,B2,1] <= 9981
 PM[B26,B3,0]: - c[B3,0] + c[B26,0] + 100 delta[B26,B3,0] <= 88.5
 PM[B26,B3,1]: - c[B3,1] + c[B26,1] + 9999 delta[B26,B3,1] <= 9986
 PM[B26,B4,0]: - c[B4,0] + c[B26,0] + 100 delta[B26,B4,0] <= 93.5
 PM[B26,B4,1]: - c[B4,1] + c[B26,1] + 9999 delta[B26,B4,1] <= 9984
 PM[B26,B5,0]: - c[B5,0] + c[B26,0] + 100 delta[B26,B5,0] <= 90.5
 PM[B26,B5,1]: - c[B5,1] + c[B26,1] + 9999 delta[B26,B5,1] <= 9990.5
 PM[B26,B6,0]: - c[B6,0] + c[B26,0] + 100 delta[B26,B6,0] <= 83
 PM[B26,B6,1]: - c[B6,1] + c[B26,1] + 9999 delta[B26,B6,1] <= 9986.5
 PM[B26,B7,0]: - c[B7,0] + c[B26,0] + 100 delta[B26,B7,0] <= 81
 PM[B26,B7,1]: - c[B7,1] + c[B26,1] + 9999 delta[B26,B7,1] <= 9985.5
 PM[B26,B8,0]: - c[B8,0] + c[B26,0] + 100 delta[B26,B8,0] <= 93
 PM[B26,B8,1]: - c[B8,1] + c[B26,1] + 10000 delta[B26,B8,1] <= 9987.5
 PM[B26,B9,0]: - c[B9,0] + c[B26,0] + 100 delta[B26,B9,0] <= 84
 PM[B26,B9,1]: - c[B9,1] + c[B26,1] + 9999 delta[B26,B9,1] <= 9986
 PM[B26,B10,0]: - c[B10,0] + c[B26,0] + 100 delta[B26,B10,0] <= 91.5
 PM[B26,B10,1]: - c[B10,1] + c[B26,1] + 10000 delta[B26,B10,1] <= 9990.5
 PM[B26,B11,0]: - c[B11,0] + c[B26,0] + 100 delta[B26,B11,0] <= 86
 PM[B26,B11,1]: - c[B11,1] + c[B26,1] + 9999 delta[B26,B11,1] <= 9981.5
 PM[B26,B12,0]: - c[B12,0] + c[B26,0] + 100 delta[B26,B12,0] <= 87
 PM[B26,B12,1]: - c[B12,1] + c[B26,1] + 10000 delta[B26,B12,1] <= 9989.5
 PM[B26,B13,0]: - c[B13,0] + c[B26,0] + 100 delta[B26,B13,0] <= 86.5
 PM[B26,B13,1]: - c[B13,1] + c[B26,1] + 10000 delta[B26,B13,1] <= 9991.5
 PM[B26,B14,0]: - c[B14,0] + c[B26,0] + 100 delta[B26,B14,0] <= 89.5
 PM[B26,B14,1]: - c[B14,1] + c[B26,1] + 9999 delta[B26,B14,1] <= 9989
 PM[B26,B15,0]: - c[B15,0] + c[B26,0] + 100 delta[B26,B15,0] <= 88.5
 PM[B26,B15,1]: - c[B15,1] + c[B26,1] + 10000 delta[B26,B15,1] <= 9989.5
 PM[B26,B16,0]: - c[B16,0] + c[B26,0] + 100 delta[B26,B16,0] <= 90
 PM[B26,B16,1]: - c[B16,1] + c[B26,1] + 9999 delta[B26,B16,1] <= 9989.5
 PM[B26,B17,0]: - c[B17,0] + c[B26,0] + 100 delta[B26,B17,0] <= 89.5
 PM[B26,B17,1]: - c[B17,1] + c[B26,1] + 9999 delta[B26,B17,1] <= 9974
 PM[B26,B18,0]: - c[B18,0] + c[B26,0] + 100 delta[B26,B18,0] <= 70.5
 PM[B26,B18,1]: - c[B18,1] + c[B26,1] + 10000 delta[B26,B18,1] <= 9992
 PM[B26,B19,0]: - c[B19,0] + c[B26,0] + 100 delta[B26,B19,0] <= 90
 PM[B26,B19,1]: - c[B19,1] + c[B26,1] + 10000 delta[B26,B19,1] <= 9990.5
 PM[B26,B20,0]: - c[B20,0] + c[B26,0] + 100 delta[B26,B20,0] <= 86.5
 PM[B26,B20,1]: - c[B20,1] + c[B26,1] + 10000 delta[B26,B20,1] <= 9990.5
 PM[B26,B21,0]: - c[B21,0] + c[B26,0] + 100 delta[B26,B21,0] <= 70.5
 PM[B26,B21,1]: - c[B21,1] + c[B26,1] + 9999 delta[B26,B21,1] <= 9989.5
 PM[B26,B22,0]: - c[B22,0] + c[B26,0] + 100 delta[B26,B22,0] <= 85
 PM[B26,B22,1]: - c[B22,1] + c[B26,1] + 10000 delta[B26,B22,1] <= 9988.5
 PM[B26,B23,0]: - c[B23,0] + c[B26,0] + 100 delta[B26,B23,0] <= 88.5
 PM[B26,B23,1]: - c[B23,1] + c[B26,1] + 10000 delta[B26,B23,1] <= 9987.5
 PM[B26,B24,0]: - c[B24,0] + c[B26,0] + 100 delta[B26,B24,0] <= 88.5
 PM[B26,B24,1]: - c[B24,1] + c[B26,1] + 10000 delta[B26,B24,1] <= 9987
 PM[B26,B25,0]: - c[B25,0] + c[B26,0] + 100 delta[B26,B25,0] <= 77.5
 PM[B26,B25,1]: - c[B25,1] + c[B26,1] + 9999 delta[B26,B25,1] <= 9990
 PM[B26,B27,0]: c[B26,0] - c[B27,0] + 100 delta[B26,B27,0] <= 85.5
 PM[B26,B27,1]: c[B26,1] - c[B27,1] + 9999 delta[B26,B27,1] <= 9983
 PM[B26,B28,0]: c[B26,0] - c[B28,0] + 100 delta[B26,B28,0] <= 77
 PM[B26,B28,1]: c[B26,1] - c[B28,1] + 9999 delta[B26,B28,1] <= 9989
 PM[B26,B29,0]: c[B26,0] - c[B29,0] + 100 delta[B26,B29,0] <= 88.5
 PM[B26,B29,1]: c[B26,1] - c[B29,1] + 10000 delta[B26,B29,1] <= 9988
 PM[B26,B30,0]: c[B26,0] - c[B30,0] + 100 delta[B26,B30,0] <= 91.5
 PM[B26,B30,1]: c[B26,1] - c[B30,1] + 9999 delta[B26,B30,1] <= 9965.5
 PM[B26,B31,0]: c[B26,0] - c[B31,0] + 100 delta[B26,B31,0] <= 80.5
 PM[B26,B31,1]: c[B26,1] - c[B31,1] + 9999 delta[B26,B31,1] <= 9986
 PM[B26,B32,0]: c[B26,0] - c[B32,0] + 100 delta[B26,B32,0] <= 90.5
 PM[B26,B32,1]: c[B26,1] - c[B32,1] + 10000 delta[B26,B32,1] <= 9991
 PM[B26,B33,0]: c[B26,0] - c[B33,0] + 100 delta[B26,B33,0] <= 89
 PM[B26,B33,1]: c[B26,1] - c[B33,1] + 10000 delta[B26,B33,1] <= 9992.5
 PM[B26,B34,0]: c[B26,0] - c[B34,0] + 100 delta[B26,B34,0] <= 94
 PM[B26,B34,1]: c[B26,1] - c[B34,1] + 10000 delta[B26,B34,1] <= 9989
 PM[B27,B0,0]: - c[B0,0] + c[B27,0] + 100 delta[B27,B0,0] <= 86.5
 PM[B27,B0,1]: - c[B0,1] + c[B27,1] + 9992 delta[B27,B0,1] <= 9966
 PM[B27,B1,0]: - c[B1,0] + c[B27,0] + 100 delta[B27,B1,0] <= 88
 PM[B27,B1,1]: - c[B1,1] + c[B27,1] + 10000 delta[B27,B1,1] <= 9976
 PM[B27,B2,0]: - c[B2,0] + c[B27,0] + 100 delta[B27,B2,0] <= 93
 PM[B27,B2,1]: - c[B2,1] + c[B27,1] + 9992 delta[B27,B2,1] <= 9968
 PM[B27,B3,0]: - c[B3,0] + c[B27,0] + 100 delta[B27,B3,0] <= 88
 PM[B27,B3,1]: - c[B3,1] + c[B27,1] + 9997 delta[B27,B3,1] <= 9973
 PM[B27,B4,0]: - c[B4,0] + c[B27,0] + 100 delta[B27,B4,0] <= 93
 PM[B27,B4,1]: - c[B4,1] + c[B27,1] + 9995 delta[B27,B4,1] <= 9971
 PM[B27,B5,0]: - c[B5,0] + c[B27,0] + 100 delta[B27,B5,0] <= 90
 PM[B27,B5,1]: - c[B5,1] + c[B27,1] + 9998 delta[B27,B5,1] <= 9977.5
 PM[B27,B6,0]: - c[B6,0] + c[B27,0] + 100 delta[B27,B6,0] <= 82.5
 PM[B27,B6,1]: - c[B6,1] + c[B27,1] + 9995 delta[B27,B6,1] <= 9973.5
 PM[B27,B7,0]: - c[B7,0] + c[B27,0] + 100 delta[B27,B7,0] <= 80.5
 PM[B27,B7,1]: - c[B7,1] + c[B27,1] + 9994 delta[B27,B7,1] <= 9972.5
 PM[B27,B8,0]: - c[B8,0] + c[B27,0] + 100 delta[B27,B8,0] <= 92.5
 PM[B27,B8,1]: - c[B8,1] + c[B27,1] + 10000 delta[B27,B8,1] <= 9974.5
 PM[B27,B9,0]: - c[B9,0] + c[B27,0] + 100 delta[B27,B9,0] <= 83.5
 PM[B27,B9,1]: - c[B9,1] + c[B27,1] + 9995 delta[B27,B9,1] <= 9973
 PM[B27,B10,0]: - c[B10,0] + c[B27,0] + 100 delta[B27,B10,0] <= 91
 PM[B27,B10,1]: - c[B10,1] + c[B27,1] + 10000 delta[B27,B10,1] <= 9977.5
 PM[B27,B11,0]: - c[B11,0] + c[B27,0] + 100 delta[B27,B11,0] <= 85.5
 PM[B27,B11,1]: - c[B11,1] + c[B27,1] + 9992 delta[B27,B11,1] <= 9968.5
 PM[B27,B12,0]: - c[B12,0] + c[B27,0] + 100 delta[B27,B12,0] <= 86.5
 PM[B27,B12,1]: - c[B12,1] + c[B27,1] + 10000 delta[B27,B12,1] <= 9976.5
 PM[B27,B13,0]: - c[B13,0] + c[B27,0] + 100 delta[B27,B13,0] <= 86
 PM[B27,B13,1]: - c[B13,1] + c[B27,1] + 10000 delta[B27,B13,1] <= 9978.5
 PM[B27,B14,0]: - c[B14,0] + c[B27,0] + 100 delta[B27,B14,0] <= 89
 PM[B27,B14,1]: - c[B14,1] + c[B27,1] + 9998 delta[B27,B14,1] <= 9976
 PM[B27,B15,0]: - c[B15,0] + c[B27,0] + 100 delta[B27,B15,0] <= 88
 PM[B27,B15,1]: - c[B15,1] + c[B27,1] + 10000 delta[B27,B15,1] <= 9976.5
 PM[B27,B16,0]: - c[B16,0] + c[B27,0] + 100 delta[B27,B16,0] <= 89.5
 PM[B27,B16,1]: - c[B16,1] + c[B27,1] + 9998 delta[B27,B16,1] <= 9976.5
 PM[B27,B17,0]: - c[B17,0] + c[B27,0] + 100 delta[B27,B17,0] <= 89
 PM[B27,B17,1]: - c[B17,1] + c[B27,1] + 9992 delta[B27,B17,1] <= 9961
 PM[B27,B18,0]: - c[B18,0] + c[B27,0] + 100 delta[B27,B18,0] <= 70
 PM[B27,B18,1]: - c[B18,1] + c[B27,1] + 10000 delta[B27,B18,1] <= 9979
 PM[B27,B19,0]: - c[B19,0] + c[B27,0] + 100 delta[B27,B19,0] <= 89.5
 PM[B27,B19,1]: - c[B19,1] + c[B27,1] + 10000 delta[B27,B19,1] <= 9977.5
 PM[B27,B20,0]: - c[B20,0] + c[B27,0] + 100 delta[B27,B20,0] <= 86
 PM[B27,B20,1]: - c[B20,1] + c[B27,1] + 10000 delta[B27,B20,1] <= 9977.5
 PM[B27,B21,0]: - c[B21,0] + c[B27,0] + 100 delta[B27,B21,0] <= 70
 PM[B27,B21,1]: - c[B21,1] + c[B27,1] + 9998 delta[B27,B21,1] <= 9976.5
 PM[B27,B22,0]: - c[B22,0] + c[B27,0] + 100 delta[B27,B22,0] <= 84.5
 PM[B27,B22,1]: - c[B22,1] + c[B27,1] + 10000 delta[B27,B22,1] <= 9975.5
 PM[B27,B23,0]: - c[B23,0] + c[B27,0] + 100 delta[B27,B23,0] <= 88
 PM[B27,B23,1]: - c[B23,1] + c[B27,1] + 10000 delta[B27,B23,1] <= 9974.5
 PM[B27,B24,0]: - c[B24,0] + c[B27,0] + 100 delta[B27,B24,0] <= 88
 PM[B27,B24,1]: - c[B24,1] + c[B27,1] + 10000 delta[B27,B24,1] <= 9974
 PM[B27,B25,0]: - c[B25,0] + c[B27,0] + 100 delta[B27,B25,0] <= 77
 PM[B27,B25,1]: - c[B25,1] + c[B27,1] + 9999 delta[B27,B25,1] <= 9977
 PM[B27,B26,0]: - c[B26,0] + c[B27,0] + 100 delta[B27,B26,0] <= 89.5
 PM[B27,B26,1]: - c[B26,1] + c[B27,1] + 10000 delta[B27,B26,1] <= 9979
 PM[B27,B28,0]: c[B27,0] - c[B28,0] + 100 delta[B27,B28,0] <= 76.5
 PM[B27,B28,1]: c[B27,1] - c[B28,1] + 9997 delta[B27,B28,1] <= 9976
 PM[B27,B29,0]: c[B27,0] - c[B29,0] + 100 delta[B27,B29,0] <= 88
 PM[B27,B29,1]: c[B27,1] - c[B29,1] + 10000 delta[B27,B29,1] <= 9975
 PM[B27,B30,0]: c[B27,0] - c[B30,0] + 100 delta[B27,B30,0] <= 91
 PM[B27,B30,1]: c[B27,1] - c[B30,1] + 9992 delta[B27,B30,1] <= 9952.5
 PM[B27,B31,0]: c[B27,0] - c[B31,0] + 100 delta[B27,B31,0] <= 80
 PM[B27,B31,1]: c[B27,1] - c[B31,1] + 9999 delta[B27,B31,1] <= 9973
 PM[B27,B32,0]: c[B27,0] - c[B32,0] + 100 delta[B27,B32,0] <= 90
 PM[B27,B32,1]: c[B27,1] - c[B32,1] + 10000 delta[B27,B32,1] <= 9978
 PM[B27,B33,0]: c[B27,0] - c[B33,0] + 100 delta[B27,B33,0] <= 88.5
 PM[B27,B33,1]: c[B27,1] - c[B33,1] + 10000 delta[B27,B33,1] <= 9979.5
 PM[B27,B34,0]: c[B27,0] - c[B34,0] + 100 delta[B27,B34,0] <= 93.5
 PM[B27,B34,1]: c[B27,1] - c[B34,1] + 10000 delta[B27,B34,1] <= 9976
 PM[B28,B0,0]: - c[B0,0] + c[B28,0] + 100 delta[B28,B0,0] <= 82
 PM[B28,B0,1]: - c[B0,1] + c[B28,1] + 10000 delta[B28,B0,1] <= 9980
 PM[B28,B1,0]: - c[B1,0] + c[B28,0] + 100 delta[B28,B1,0] <= 83.5
 PM[B28,B1,1]: - c[B1,1] + c[B28,1] + 10000 delta[B28,B1,1] <= 9990
 PM[B28,B2,0]: - c[B2,0] + c[B28,0] + 100 delta[B28,B2,0] <= 88.5
 PM[B28,B2,1]: - c[B2,1] + c[B28,1] + 10000 delta[B28,B2,1] <= 9982
 PM[B28,B3,0]: - c[B3,0] + c[B28,0] + 100 delta[B28,B3,0] <= 83.5
 PM[B28,B3,1]: - c[B3,1] + c[B28,1] + 10000 delta[B28,B3,1] <= 9987
 PM[B28,B4,0]: - c[B4,0] + c[B28,0] + 100 delta[B28,B4,0] <= 88.5
 PM[B28,B4,1]: - c[B4,1] + c[B28,1] + 10000 delta[B28,B4,1] <= 9985
 PM[B28,B5,0]: - c[B5,0] + c[B28,0] + 100 delta[B28,B5,0] <= 85.5
 PM[B28,B5,1]: - c[B5,1] + c[B28,1] + 10000 delta[B28,B5,1] <= 9991.5
 PM[B28,B6,0]: - c[B6,0] + c[B28,0] + 100 delta[B28,B6,0] <= 78
 PM[B28,B6,1]: - c[B6,1] + c[B28,1] + 10000 delta[B28,B6,1] <= 9987.5
 PM[B28,B7,0]: - c[B7,0] + c[B28,0] + 100 delta[B28,B7,0] <= 76
 PM[B28,B7,1]: - c[B7,1] + c[B28,1] + 10000 delta[B28,B7,1] <= 9986.5
 PM[B28,B8,0]: - c[B8,0] + c[B28,0] + 100 delta[B28,B8,0] <= 88
 PM[B28,B8,1]: - c[B8,1] + c[B28,1] + 10000 delta[B28,B8,1] <= 9988.5
 PM[B28,B9,0]: - c[B9,0] + c[B28,0] + 100 delta[B28,B9,0] <= 79
 PM[B28,B9,1]: - c[B9,1] + c[B28,1] + 10000 delta[B28,B9,1] <= 9987
 PM[B28,B10,0]: - c[B10,0] + c[B28,0] + 100 delta[B28,B10,0] <= 86.5
 PM[B28,B10,1]: - c[B10,1] + c[B28,1] + 10000 delta[B28,B10,1] <= 9991.5
 PM[B28,B11,0]: - c[B11,0] + c[B28,0] + 100 delta[B28,B11,0] <= 81
 PM[B28,B11,1]: - c[B11,1] + c[B28,1] + 10000 delta[B28,B11,1] <= 9982.5
 PM[B28,B12,0]: - c[B12,0] + c[B28,0] + 100 delta[B28,B12,0] <= 82
 PM[B28,B12,1]: - c[B12,1] + c[B28,1] + 10000 delta[B28,B12,1] <= 9990.5
 PM[B28,B13,0]: - c[B13,0] + c[B28,0] + 100 delta[B28,B13,0] <= 81.5
 PM[B28,B13,1]: - c[B13,1] + c[B28,1] + 10000 delta[B28,B13,1] <= 9992.5
 PM[B28,B14,0]: - c[B14,0] + c[B28,0] + 100 delta[B28,B14,0] <= 84.5
 PM[B28,B14,1]: - c[B14,1] + c[B28,1] + 10000 delta[B28,B14,1] <= 9990
 PM[B28,B15,0]: - c[B15,0] + c[B28,0] + 100 delta[B28,B15,0] <= 83.5
 PM[B28,B15,1]: - c[B15,1] + c[B28,1] + 10000 delta[B28,B15,1] <= 9990.5
 PM[B28,B16,0]: - c[B16,0] + c[B28,0] + 100 delta[B28,B16,0] <= 85
 PM[B28,B16,1]: - c[B16,1] + c[B28,1] + 10000 delta[B28,B16,1] <= 9990.5
 PM[B28,B17,0]: - c[B17,0] + c[B28,0] + 100 delta[B28,B17,0] <= 84.5
 PM[B28,B17,1]: - c[B17,1] + c[B28,1] + 10000 delta[B28,B17,1] <= 9975
 PM[B28,B18,0]: - c[B18,0] + c[B28,0] + 100 delta[B28,B18,0] <= 65.5
 PM[B28,B18,1]: - c[B18,1] + c[B28,1] + 10000 delta[B28,B18,1] <= 9993
 PM[B28,B19,0]: - c[B19,0] + c[B28,0] + 100 delta[B28,B19,0] <= 85
 PM[B28,B19,1]: - c[B19,1] + c[B28,1] + 10000 delta[B28,B19,1] <= 9991.5
 PM[B28,B20,0]: - c[B20,0] + c[B28,0] + 100 delta[B28,B20,0] <= 81.5
 PM[B28,B20,1]: - c[B20,1] + c[B28,1] + 10000 delta[B28,B20,1] <= 9991.5
 PM[B28,B21,0]: - c[B21,0] + c[B28,0] + 100 delta[B28,B21,0] <= 65.5
 PM[B28,B21,1]: - c[B21,1] + c[B28,1] + 10000 delta[B28,B21,1] <= 9990.5
 PM[B28,B22,0]: - c[B22,0] + c[B28,0] + 100 delta[B28,B22,0] <= 80
 PM[B28,B22,1]: - c[B22,1] + c[B28,1] + 10000 delta[B28,B22,1] <= 9989.5
 PM[B28,B23,0]: - c[B23,0] + c[B28,0] + 100 delta[B28,B23,0] <= 83.5
 PM[B28,B23,1]: - c[B23,1] + c[B28,1] + 10000 delta[B28,B23,1] <= 9988.5
 PM[B28,B24,0]: - c[B24,0] + c[B28,0] + 100 delta[B28,B24,0] <= 83.5
 PM[B28,B24,1]: - c[B24,1] + c[B28,1] + 10000 delta[B28,B24,1] <= 9988
 PM[B28,B25,0]: - c[B25,0] + c[B28,0] + 100 delta[B28,B25,0] <= 72.5
 PM[B28,B25,1]: - c[B25,1] + c[B28,1] + 10000 delta[B28,B25,1] <= 9991
 PM[B28,B26,0]: - c[B26,0] + c[B28,0] + 100 delta[B28,B26,0] <= 85
 PM[B28,B26,1]: - c[B26,1] + c[B28,1] + 10000 delta[B28,B26,1] <= 9993
 PM[B28,B27,0]: - c[B27,0] + c[B28,0] + 100 delta[B28,B27,0] <= 80.5
 PM[B28,B27,1]: - c[B27,1] + c[B28,1] + 10000 delta[B28,B27,1] <= 9984
 PM[B28,B29,0]: c[B28,0] - c[B29,0] + 100 delta[B28,B29,0] <= 83.5
 PM[B28,B29,1]: c[B28,1] - c[B29,1] + 10000 delta[B28,B29,1] <= 9989
 PM[B28,B30,0]: c[B28,0] - c[B30,0] + 100 delta[B28,B30,0] <= 86.5
 PM[B28,B30,1]: c[B28,1] - c[B30,1] + 10000 delta[B28,B30,1] <= 9966.5
 PM[B28,B31,0]: c[B28,0] - c[B31,0] + 100 delta[B28,B31,0] <= 75.5
 PM[B28,B31,1]: c[B28,1] - c[B31,1] + 10000 delta[B28,B31,1] <= 9987
 PM[B28,B32,0]: c[B28,0] - c[B32,0] + 100 delta[B28,B32,0] <= 85.5
 PM[B28,B32,1]: c[B28,1] - c[B32,1] + 10000 delta[B28,B32,1] <= 9992
 PM[B28,B33,0]: c[B28,0] - c[B33,0] + 100 delta[B28,B33,0] <= 84
 PM[B28,B33,1]: c[B28,1] - c[B33,1] + 10000 delta[B28,B33,1] <= 9993.5
 PM[B28,B34,0]: c[B28,0] - c[B34,0] + 100 delta[B28,B34,0] <= 89
 PM[B28,B34,1]: c[B28,1] - c[B34,1] + 10000 delta[B28,B34,1] <= 9990
 PM[B29,B0,0]: - c[B0,0] + c[B29,0] + 100 delta[B29,B0,0] <= 82.5
 PM[B29,B0,1]: - c[B0,1] + c[B29,1] + 10000 delta[B29,B0,1] <= 9976
 PM[B29,B1,0]: - c[B1,0] + c[B29,0] + 100 delta[B29,B1,0] <= 84
 PM[B29,B1,1]: - c[B1,1] + c[B29,1] + 10000 delta[B29,B1,1] <= 9986
 PM[B29,B2,0]: - c[B2,0] + c[B29,0] + 100 delta[B29,B2,0] <= 89
 PM[B29,B2,1]: - c[B2,1] + c[B29,1] + 10000 delta[B29,B2,1] <= 9978
 PM[B29,B3,0]: - c[B3,0] + c[B29,0] + 100 delta[B29,B3,0] <= 84
 PM[B29,B3,1]: - c[B3,1] + c[B29,1] + 10000 delta[B29,B3,1] <= 9983
 PM[B29,B4,0]: - c[B4,0] + c[B29,0] + 100 delta[B29,B4,0] <= 89
 PM[B29,B4,1]: - c[B4,1] + c[B29,1] + 10000 delta[B29,B4,1] <= 9981
 PM[B29,B5,0]: - c[B5,0] + c[B29,0] + 100 delta[B29,B5,0] <= 86
 PM[B29,B5,1]: - c[B5,1] + c[B29,1] + 10000 delta[B29,B5,1] <= 9987.5
 PM[B29,B6,0]: - c[B6,0] + c[B29,0] + 100 delta[B29,B6,0] <= 78.5
 PM[B29,B6,1]: - c[B6,1] + c[B29,1] + 10000 delta[B29,B6,1] <= 9983.5
 PM[B29,B7,0]: - c[B7,0] + c[B29,0] + 100 delta[B29,B7,0] <= 76.5
 PM[B29,B7,1]: - c[B7,1] + c[B29,1] + 10000 delta[B29,B7,1] <= 9982.5
 PM[B29,B8,0]: - c[B8,0] + c[B29,0] + 100 delta[B29,B8,0] <= 88.5
 PM[B29,B8,1]: - c[B8,1] + c[B29,1] + 10000 delta[B29,B8,1] <= 9984.5
 PM[B29,B9,0]: - c[B9,0] + c[B29,0] + 100 delta[B29,B9,0] <= 79.5
 PM[B29,B9,1]: - c[B9,1] + c[B29,1] + 10000 delta[B29,B9,1] <= 9983
 PM[B29,B10,0]: - c[B10,0] + c[B29,0] + 100 delta[B29,B10,0] <= 87
 PM[B29,B10,1]: - c[B10,1] + c[B29,1] + 10000 delta[B29,B10,1] <= 9987.5
 PM[B29,B11,0]: - c[B11,0] + c[B29,0] + 100 delta[B29,B11,0] <= 81.5
 PM[B29,B11,1]: - c[B11,1] + c[B29,1] + 10000 delta[B29,B11,1] <= 9978.5
 PM[B29,B12,0]: - c[B12,0] + c[B29,0] + 100 delta[B29,B12,0] <= 82.5
 PM[B29,B12,1]: - c[B12,1] + c[B29,1] + 10000 delta[B29,B12,1] <= 9986.5
 PM[B29,B13,0]: - c[B13,0] + c[B29,0] + 100 delta[B29,B13,0] <= 82
 PM[B29,B13,1]: - c[B13,1] + c[B29,1] + 10000 delta[B29,B13,1] <= 9988.5
 PM[B29,B14,0]: - c[B14,0] + c[B29,0] + 100 delta[B29,B14,0] <= 85
 PM[B29,B14,1]: - c[B14,1] + c[B29,1] + 10000 delta[B29,B14,1] <= 9986
 PM[B29,B15,0]: - c[B15,0] + c[B29,0] + 100 delta[B29,B15,0] <= 84
 PM[B29,B15,1]: - c[B15,1] + c[B29,1] + 10000 delta[B29,B15,1] <= 9986.5
 PM[B29,B16,0]: - c[B16,0] + c[B29,0] + 100 delta[B29,B16,0] <= 85.5
 PM[B29,B16,1]: - c[B16,1] + c[B29,1] + 10000 delta[B29,B16,1] <= 9986.5
 PM[B29,B17,0]: - c[B17,0] + c[B29,0] + 100 delta[B29,B17,0] <= 85
 PM[B29,B17,1]: - c[B17,1] + c[B29,1] + 10000 delta[B29,B17,1] <= 9971
 PM[B29,B18,0]: - c[B18,0] + c[B29,0] + 100 delta[B29,B18,0] <= 66
 PM[B29,B18,1]: - c[B18,1] + c[B29,1] + 10000 delta[B29,B18,1] <= 9989
 PM[B29,B19,0]: - c[B19,0] + c[B29,0] + 100 delta[B29,B19,0] <= 85.5
 PM[B29,B19,1]: - c[B19,1] + c[B29,1] + 10000 delta[B29,B19,1] <= 9987.5
 PM[B29,B20,0]: - c[B20,0] + c[B29,0] + 100 delta[B29,B20,0] <= 82
 PM[B29,B20,1]: - c[B20,1] + c[B29,1] + 10000 delta[B29,B20,1] <= 9987.5
 PM[B29,B21,0]: - c[B21,0] + c[B29,0] + 100 delta[B29,B21,0] <= 66
 PM[B29,B21,1]: - c[B21,1] + c[B29,1] + 10000 delta[B29,B21,1] <= 9986.5
 PM[B29,B22,0]: - c[B22,0] + c[B29,0] + 100 delta[B29,B22,0] <= 80.5
 PM[B29,B22,1]: - c[B22,1] + c[B29,1] + 10000 delta[B29,B22,1] <= 9985.5
 PM[B29,B23,0]: - c[B23,0] + c[B29,0] + 100 delta[B29,B23,0] <= 84
 PM[B29,B23,1]: - c[B23,1] + c[B29,1] + 10000 delta[B29,B23,1] <= 9984.5
 PM[B29,B24,0]: - c[B24,0] + c[B29,0] + 100 delta[B29,B24,0] <= 84
 PM[B29,B24,1]: - c[B24,1] + c[B29,1] + 10000 delta[B29,B24,1] <= 9984
 PM[B29,B25,0]: - c[B25,0] + c[B29,0] + 100 delta[B29,B25,0] <= 73
 PM[B29,B25,1]: - c[B25,1] + c[B29,1] + 10000 delta[B29,B25,1] <= 9987
 PM[B29,B26,0]: - c[B26,0] + c[B29,0] + 100 delta[B29,B26,0] <= 85.5
 PM[B29,B26,1]: - c[B26,1] + c[B29,1] + 10000 delta[B29,B26,1] <= 9989
 PM[B29,B27,0]: - c[B27,0] + c[B29,0] + 100 delta[B29,B27,0] <= 81
 PM[B29,B27,1]: - c[B27,1] + c[B29,1] + 10000 delta[B29,B27,1] <= 9980
 PM[B29,B28,0]: - c[B28,0] + c[B29,0] + 100 delta[B29,B28,0] <= 72.5
 PM[B29,B28,1]: - c[B28,1] + c[B29,1] + 10000 delta[B29,B28,1] <= 9986
 PM[B29,B30,0]: c[B29,0] - c[B30,0] + 100 delta[B29,B30,0] <= 87
 PM[B29,B30,1]: c[B29,1] - c[B30,1] + 10000 delta[B29,B30,1] <= 9962.5
 PM[B29,B31,0]: c[B29,0] - c[B31,0] + 100 delta[B29,B31,0] <= 76
 PM[B29,B31,1]: c[B29,1] - c[B31,1] + 10000 delta[B29,B31,1] <= 9983
 PM[B29,B32,0]: c[B29,0] - c[B32,0] + 100 delta[B29,B32,0] <= 86
 PM[B29,B32,1]: c[B29,1] - c[B32,1] + 10000 delta[B29,B32,1] <= 9988
 PM[B29,B33,0]: c[B29,0] - c[B33,0] + 100 delta[B29,B33,0] <= 84.5
 PM[B29,B33,1]: c[B29,1] - c[B33,1] + 10000 delta[B29,B33,1] <= 9989.5
 PM[B29,B34,0]: c[B29,0] - c[B34,0] + 100 delta[B29,B34,0] <= 89.5
 PM[B29,B34,1]: c[B29,1] - c[B34,1] + 10000 delta[B29,B34,1] <= 9986
 PM[B30,B0,0]: - c[B0,0] + c[B30,0] + 98 delta[B30,B0,0] <= 85.5
 PM[B30,B0,1]: - c[B0,1] + c[B30,1] + 9992 delta[B30,B0,1] <= 9965.5
 PM[B30,B1,0]: - c[B1,0] + c[B30,0] + 100 delta[B30,B1,0] <= 87
 PM[B30,B1,1]: - c[B1,1] + c[B30,1] + 10000 delta[B30,B1,1] <= 9975.5
 PM[B30,B2,0]: - c[B2,0] + c[B30,0] + 100 delta[B30,B2,0] <= 92
 PM[B30,B2,1]: - c[B2,1] + c[B30,1] + 9992 delta[B30,B2,1] <= 9967.5
 PM[B30,B3,0]: - c[B3,0] + c[B30,0] + 100 delta[B30,B3,0] <= 87
 PM[B30,B3,1]: - c[B3,1] + c[B30,1] + 9997 delta[B30,B3,1] <= 9972.5
 PM[B30,B4,0]: - c[B4,0] + c[B30,0] + 100 delta[B30,B4,0] <= 92
 PM[B30,B4,1]: - c[B4,1] + c[B30,1] + 9995 delta[B30,B4,1] <= 9970.5
 PM[B30,B5,0]: - c[B5,0] + c[B30,0] + 98 delta[B30,B5,0] <= 89
 PM[B30,B5,1]: - c[B5,1] + c[B30,1] + 9998 delta[B30,B5,1] <= 9977
 PM[B30,B6,0]: - c[B6,0] + c[B30,0] + 98 delta[B30,B6,0] <= 81.5
 PM[B30,B6,1]: - c[B6,1] + c[B30,1] + 9995 delta[B30,B6,1] <= 9973
 PM[B30,B7,0]: - c[B7,0] + c[B30,0] + 98 delta[B30,B7,0] <= 79.5
 PM[B30,B7,1]: - c[B7,1] + c[B30,1] + 9994 delta[B30,B7,1] <= 9972
 PM[B30,B8,0]: - c[B8,0] + c[B30,0] + 100 delta[B30,B8,0] <= 91.5
 PM[B30,B8,1]: - c[B8,1] + c[B30,1] + 10000 delta[B30,B8,1] <= 9974
 PM[B30,B9,0]: - c[B9,0] + c[B30,0] + 98 delta[B30,B9,0] <= 82.5
 PM[B30,B9,1]: - c[B9,1] + c[B30,1] + 9995 delta[B30,B9,1] <= 9972.5
 PM[B30,B10,0]: - c[B10,0] + c[B30,0] + 100 delta[B30,B10,0] <= 90
 PM[B30,B10,1]: - c[B10,1] + c[B30,1] + 10000 delta[B30,B10,1] <= 9977
 PM[B30,B11,0]: - c[B11,0] + c[B30,0] + 98 delta[B30,B11,0] <= 84.5
 PM[B30,B11,1]: - c[B11,1] + c[B30,1] + 9992 delta[B30,B11,1] <= 9968
 PM[B30,B12,0]: - c[B12,0] + c[B30,0] + 100 delta[B30,B12,0] <= 85.5
 PM[B30,B12,1]: - c[B12,1] + c[B30,1] + 10000 delta[B30,B12,1] <= 9976
 PM[B30,B13,0]: - c[B13,0] + c[B30,0] + 98 delta[B30,B13,0] <= 85
 PM[B30,B13,1]: - c[B13,1] + c[B30,1] + 10000 delta[B30,B13,1] <= 9978
 PM[B30,B14,0]: - c[B14,0] + c[B30,0] + 100 delta[B30,B14,0] <= 88
 PM[B30,B14,1]: - c[B14,1] + c[B30,1] + 9998 delta[B30,B14,1] <= 9975.5
 PM[B30,B15,0]: - c[B15,0] + c[B30,0] + 100 delta[B30,B15,0] <= 87
 PM[B30,B15,1]: - c[B15,1] + c[B30,1] + 10000 delta[B30,B15,1] <= 9976
 PM[B30,B16,0]: - c[B16,0] + c[B30,0] + 100 delta[B30,B16,0] <= 88.5
 PM[B30,B16,1]: - c[B16,1] + c[B30,1] + 9998 delta[B30,B16,1] <= 9976
 PM[B30,B17,0]: - c[B17,0] + c[B30,0] + 100 delta[B30,B17,0] <= 88
 PM[B30,B17,1]: - c[B17,1] + c[B30,1] + 9992 delta[B30,B17,1] <= 9960.5
 PM[B30,B18,0]: - c[B18,0] + c[B30,0] + 98 delta[B30,B18,0] <= 69
 PM[B30,B18,1]: - c[B18,1] + c[B30,1] + 10000 delta[B30,B18,1] <= 9978.5
 PM[B30,B19,0]: - c[B19,0] + c[B30,0] + 100 delta[B30,B19,0] <= 88.5
 PM[B30,B19,1]: - c[B19,1] + c[B30,1] + 10000 delta[B30,B19,1] <= 9977
 PM[B30,B20,0]: - c[B20,0] + c[B30,0] + 98 delta[B30,B20,0] <= 85
 PM[B30,B20,1]: - c[B20,1] + c[B30,1] + 10000 delta[B30,B20,1] <= 9977
 PM[B30,B21,0]: - c[B21,0] + c[B30,0] + 98 delta[B30,B21,0] <= 69
 PM[B30,B21,1]: - c[B21,1] + c[B30,1] + 9998 delta[B30,B21,1] <= 9976
 PM[B30,B22,0]: - c[B22,0] + c[B30,0] + 98 delta[B30,B22,0] <= 83.5
 PM[B30,B22,1]: - c[B22,1] + c[B30,1] + 10000 delta[B30,B22,1] <= 9975
 PM[B30,B23,0]: - c[B23,0] + c[B30,0] + 98 delta[B30,B23,0] <= 87
 PM[B30,B23,1]: - c[B23,1] + c[B30,1] + 10000 delta[B30,B23,1] <= 9974
 PM[B30,B24,0]: - c[B24,0] + c[B30,0] + 98 delta[B30,B24,0] <= 87
 PM[B30,B24,1]: - c[B24,1] + c[B30,1] + 10000 delta[B30,B24,1] <= 9973.5
 PM[B30,B25,0]: - c[B25,0] + c[B30,0] + 98 delta[B30,B25,0] <= 76
 PM[B30,B25,1]: - c[B25,1] + c[B30,1] + 9999 delta[B30,B25,1] <= 9976.5
 PM[B30,B26,0]: - c[B26,0] + c[B30,0] + 98 delta[B30,B26,0] <= 88.5
 PM[B30,B26,1]: - c[B26,1] + c[B30,1] + 10000 delta[B30,B26,1] <= 9978.5
 PM[B30,B27,0]: - c[B27,0] + c[B30,0] + 98 delta[B30,B27,0] <= 84
 PM[B30,B27,1]: - c[B27,1] + c[B30,1] + 9997 delta[B30,B27,1] <= 9969.5
 PM[B30,B28,0]: - c[B28,0] + c[B30,0] + 98 delta[B30,B28,0] <= 75.5
 PM[B30,B28,1]: - c[B28,1] + c[B30,1] + 9997 delta[B30,B28,1] <= 9975.5
 PM[B30,B29,0]: - c[B29,0] + c[B30,0] + 100 delta[B30,B29,0] <= 87
 PM[B30,B29,1]: - c[B29,1] + c[B30,1] + 10000 delta[B30,B29,1] <= 9974.5
 PM[B30,B31,0]: c[B30,0] - c[B31,0] + 98 delta[B30,B31,0] <= 79
 PM[B30,B31,1]: c[B30,1] - c[B31,1] + 9999 delta[B30,B31,1] <= 9972.5
 PM[B30,B32,0]: c[B30,0] - c[B32,0] + 100 delta[B30,B32,0] <= 89
 PM[B30,B32,1]: c[B30,1] - c[B32,1] + 10000 delta[B30,B32,1] <= 9977.5
 PM[B30,B33,0]: c[B30,0] - c[B33,0] + 100 delta[B30,B33,0] <= 87.5
 PM[B30,B33,1]: c[B30,1] - c[B33,1] + 10000 delta[B30,B33,1] <= 9979
 PM[B30,B34,0]: c[B30,0] - c[B34,0] + 100 delta[B30,B34,0] <= 92.5
 PM[B30,B34,1]: c[B30,1] - c[B34,1] + 10000 delta[B30,B34,1] <= 9975.5
 PM[B31,B0,0]: - c[B0,0] + c[B31,0] + 96 delta[B31,B0,0] <= 77.5
 PM[B31,B0,1]: - c[B0,1] + c[B31,1] + 10000 delta[B31,B0,1] <= 9975
 PM[B31,B1,0]: - c[B1,0] + c[B31,0] + 100 delta[B31,B1,0] <= 79
 PM[B31,B1,1]: - c[B1,1] + c[B31,1] + 10000 delta[B31,B1,1] <= 9985
 PM[B31,B2,0]: - c[B2,0] + c[B31,0] + 100 delta[B31,B2,0] <= 84
 PM[B31,B2,1]: - c[B2,1] + c[B31,1] + 10000 delta[B31,B2,1] <= 9977
 PM[B31,B3,0]: - c[B3,0] + c[B31,0] + 100 delta[B31,B3,0] <= 79
 PM[B31,B3,1]: - c[B3,1] + c[B31,1] + 10000 delta[B31,B3,1] <= 9982
 PM[B31,B4,0]: - c[B4,0] + c[B31,0] + 100 delta[B31,B4,0] <= 84
 PM[B31,B4,1]: - c[B4,1] + c[B31,1] + 10000 delta[B31,B4,1] <= 9980
 PM[B31,B5,0]: - c[B5,0] + c[B31,0] + 97 delta[B31,B5,0] <= 81
 PM[B31,B5,1]: - c[B5,1] + c[B31,1] + 10000 delta[B31,B5,1] <= 9986.5
 PM[B31,B6,0]: - c[B6,0] + c[B31,0] + 96 delta[B31,B6,0] <= 73.5
 PM[B31,B6,1]: - c[B6,1] + c[B31,1] + 10000 delta[B31,B6,1] <= 9982.5
 PM[B31,B7,0]: - c[B7,0] + c[B31,0] + 96 delta[B31,B7,0] <= 71.5
 PM[B31,B7,1]: - c[B7,1] + c[B31,1] + 10000 delta[B31,B7,1] <= 9981.5
 PM[B31,B8,0]: - c[B8,0] + c[B31,0] + 100 delta[B31,B8,0] <= 83.5
 PM[B31,B8,1]: - c[B8,1] + c[B31,1] + 10000 delta[B31,B8,1] <= 9983.5
 PM[B31,B9,0]: - c[B9,0] + c[B31,0] + 96 delta[B31,B9,0] <= 74.5
 PM[B31,B9,1]: - c[B9,1] + c[B31,1] + 10000 delta[B31,B9,1] <= 9982
 PM[B31,B10,0]: - c[B10,0] + c[B31,0] + 100 delta[B31,B10,0] <= 82
 PM[B31,B10,1]: - c[B10,1] + c[B31,1] + 10000 delta[B31,B10,1] <= 9986.5
 PM[B31,B11,0]: - c[B11,0] + c[B31,0] + 96 delta[B31,B11,0] <= 76.5
 PM[B31,B11,1]: - c[B11,1] + c[B31,1] + 10000 delta[B31,B11,1] <= 9977.5
 PM[B31,B12,0]: - c[B12,0] + c[B31,0] + 100 delta[B31,B12,0] <= 77.5
 PM[B31,B12,1]: - c[B12,1] + c[B31,1] + 10000 delta[B31,B12,1] <= 9985.5
 PM[B31,B13,0]: - c[B13,0] + c[B31,0] + 97 delta[B31,B13,0] <= 77
 PM[B31,B13,1]: - c[B13,1] + c[B31,1] + 10000 delta[B31,B13,1] <= 9987.5
 PM[B31,B14,0]: - c[B14,0] + c[B31,0] + 100 delta[B31,B14,0] <= 80
 PM[B31,B14,1]: - c[B14,1] + c[B31,1] + 10000 delta[B31,B14,1] <= 9985
 PM[B31,B15,0]: - c[B15,0] + c[B31,0] + 100 delta[B31,B15,0] <= 79
 PM[B31,B15,1]: - c[B15,1] + c[B31,1] + 10000 delta[B31,B15,1] <= 9985.5
 PM[B31,B16,0]: - c[B16,0] + c[B31,0] + 100 delta[B31,B16,0] <= 80.5
 PM[B31,B16,1]: - c[B16,1] + c[B31,1] + 10000 delta[B31,B16,1] <= 9985.5
 PM[B31,B17,0]: - c[B17,0] + c[B31,0] + 100 delta[B31,B17,0] <= 80
 PM[B31,B17,1]: - c[B17,1] + c[B31,1] + 10000 delta[B31,B17,1] <= 9970
 PM[B31,B18,0]: - c[B18,0] + c[B31,0] + 96 delta[B31,B18,0] <= 61
 PM[B31,B18,1]: - c[B18,1] + c[B31,1] + 10000 delta[B31,B18,1] <= 9988
 PM[B31,B19,0]: - c[B19,0] + c[B31,0] + 100 delta[B31,B19,0] <= 80.5
 PM[B31,B19,1]: - c[B19,1] + c[B31,1] + 10000 delta[B31,B19,1] <= 9986.5
 PM[B31,B20,0]: - c[B20,0] + c[B31,0] + 98 delta[B31,B20,0] <= 77
 PM[B31,B20,1]: - c[B20,1] + c[B31,1] + 10000 delta[B31,B20,1] <= 9986.5
 PM[B31,B21,0]: - c[B21,0] + c[B31,0] + 96 delta[B31,B21,0] <= 61
 PM[B31,B21,1]: - c[B21,1] + c[B31,1] + 10000 delta[B31,B21,1] <= 9985.5
 PM[B31,B22,0]: - c[B22,0] + c[B31,0] + 96 delta[B31,B22,0] <= 75.5
 PM[B31,B22,1]: - c[B22,1] + c[B31,1] + 10000 delta[B31,B22,1] <= 9984.5
 PM[B31,B23,0]: - c[B23,0] + c[B31,0] + 96 delta[B31,B23,0] <= 79
 PM[B31,B23,1]: - c[B23,1] + c[B31,1] + 10000 delta[B31,B23,1] <= 9983.5
 PM[B31,B24,0]: - c[B24,0] + c[B31,0] + 97 delta[B31,B24,0] <= 79
 PM[B31,B24,1]: - c[B24,1] + c[B31,1] + 10000 delta[B31,B24,1] <= 9983
 PM[B31,B25,0]: - c[B25,0] + c[B31,0] + 96 delta[B31,B25,0] <= 68
 PM[B31,B25,1]: - c[B25,1] + c[B31,1] + 10000 delta[B31,B25,1] <= 9986
 PM[B31,B26,0]: - c[B26,0] + c[B31,0] + 97 delta[B31,B26,0] <= 80.5
 PM[B31,B26,1]: - c[B26,1] + c[B31,1] + 10000 delta[B31,B26,1] <= 9988
 PM[B31,B27,0]: - c[B27,0] + c[B31,0] + 96 delta[B31,B27,0] <= 76
 PM[B31,B27,1]: - c[B27,1] + c[B31,1] + 10000 delta[B31,B27,1] <= 9979
 PM[B31,B28,0]: - c[B28,0] + c[B31,0] + 96 delta[B31,B28,0] <= 67.5
 PM[B31,B28,1]: - c[B28,1] + c[B31,1] + 10000 delta[B31,B28,1] <= 9985
 PM[B31,B29,0]: - c[B29,0] + c[B31,0] + 100 delta[B31,B29,0] <= 79
 PM[B31,B29,1]: - c[B29,1] + c[B31,1] + 10000 delta[B31,B29,1] <= 9984
 PM[B31,B30,0]: - c[B30,0] + c[B31,0] + 98 delta[B31,B30,0] <= 82
 PM[B31,B30,1]: - c[B30,1] + c[B31,1] + 10000 delta[B31,B30,1] <= 9961.5
 PM[B31,B32,0]: c[B31,0] - c[B32,0] + 100 delta[B31,B32,0] <= 81
 PM[B31,B32,1]: c[B31,1] - c[B32,1] + 10000 delta[B31,B32,1] <= 9987
 PM[B31,B33,0]: c[B31,0] - c[B33,0] + 100 delta[B31,B33,0] <= 79.5
 PM[B31,B33,1]: c[B31,1] - c[B33,1] + 10000 delta[B31,B33,1] <= 9988.5
 PM[B31,B34,0]: c[B31,0] - c[B34,0] + 100 delta[B31,B34,0] <= 84.5
 PM[B31,B34,1]: c[B31,1] - c[B34,1] + 10000 delta[B31,B34,1] <= 9985
 PM[B32,B0,0]: - c[B0,0] + c[B32,0] + 100 delta[B32,B0,0] <= 84.5
 PM[B32,B0,1]: - c[B0,1] + c[B32,1] + 10000 delta[B32,B0,1] <= 9979
 PM[B32,B1,0]: - c[B1,0] + c[B32,0] + 100 delta[B32,B1,0] <= 86
 PM[B32,B1,1]: - c[B1,1] + c[B32,1] + 10000 delta[B32,B1,1] <= 9989
 PM[B32,B2,0]: - c[B2,0] + c[B32,0] + 100 delta[B32,B2,0] <= 91
 PM[B32,B2,1]: - c[B2,1] + c[B32,1] + 10000 delta[B32,B2,1] <= 9981
 PM[B32,B3,0]: - c[B3,0] + c[B32,0] + 100 delta[B32,B3,0] <= 86
 PM[B32,B3,1]: - c[B3,1] + c[B32,1] + 10000 delta[B32,B3,1] <= 9986
 PM[B32,B4,0]: - c[B4,0] + c[B32,0] + 100 delta[B32,B4,0] <= 91
 PM[B32,B4,1]: - c[B4,1] + c[B32,1] + 10000 delta[B32,B4,1] <= 9984
 PM[B32,B5,0]: - c[B5,0] + c[B32,0] + 100 delta[B32,B5,0] <= 88
 PM[B32,B5,1]: - c[B5,1] + c[B32,1] + 10000 delta[B32,B5,1] <= 9990.5
 PM[B32,B6,0]: - c[B6,0] + c[B32,0] + 100 delta[B32,B6,0] <= 80.5
 PM[B32,B6,1]: - c[B6,1] + c[B32,1] + 10000 delta[B32,B6,1] <= 9986.5
 PM[B32,B7,0]: - c[B7,0] + c[B32,0] + 100 delta[B32,B7,0] <= 78.5
 PM[B32,B7,1]: - c[B7,1] + c[B32,1] + 10000 delta[B32,B7,1] <= 9985.5
 PM[B32,B8,0]: - c[B8,0] + c[B32,0] + 100 delta[B32,B8,0] <= 90.5
 PM[B32,B8,1]: - c[B8,1] + c[B32,1] + 10000 delta[B32,B8,1] <= 9987.5
 PM[B32,B9,0]: - c[B9,0] + c[B32,0] + 100 delta[B32,B9,0] <= 81.5
 PM[B32,B9,1]: - c[B9,1] + c[B32,1] + 10000 delta[B32,B9,1] <= 9986
 PM[B32,B10,0]: - c[B10,0] + c[B32,0] + 100 delta[B32,B10,0] <= 89
 PM[B32,B10,1]: - c[B10,1] + c[B32,1] + 10000 delta[B32,B10,1] <= 9990.5
 PM[B32,B11,0]: - c[B11,0] + c[B32,0] + 100 delta[B32,B11,0] <= 83.5
 PM[B32,B11,1]: - c[B11,1] + c[B32,1] + 10000 delta[B32,B11,1] <= 9981.5
 PM[B32,B12,0]: - c[B12,0] + c[B32,0] + 100 delta[B32,B12,0] <= 84.5
 PM[B32,B12,1]: - c[B12,1] + c[B32,1] + 10000 delta[B32,B12,1] <= 9989.5
 PM[B32,B13,0]: - c[B13,0] + c[B32,0] + 100 delta[B32,B13,0] <= 84
 PM[B32,B13,1]: - c[B13,1] + c[B32,1] + 10000 delta[B32,B13,1] <= 9991.5
 PM[B32,B14,0]: - c[B14,0] + c[B32,0] + 100 delta[B32,B14,0] <= 87
 PM[B32,B14,1]: - c[B14,1] + c[B32,1] + 10000 delta[B32,B14,1] <= 9989
 PM[B32,B15,0]: - c[B15,0] + c[B32,0] + 100 delta[B32,B15,0] <= 86
 PM[B32,B15,1]: - c[B15,1] + c[B32,1] + 10000 delta[B32,B15,1] <= 9989.5
 PM[B32,B16,0]: - c[B16,0] + c[B32,0] + 100 delta[B32,B16,0] <= 87.5
 PM[B32,B16,1]: - c[B16,1] + c[B32,1] + 10000 delta[B32,B16,1] <= 9989.5
 PM[B32,B17,0]: - c[B17,0] + c[B32,0] + 100 delta[B32,B17,0] <= 87
 PM[B32,B17,1]: - c[B17,1] + c[B32,1] + 10000 delta[B32,B17,1] <= 9974
 PM[B32,B18,0]: - c[B18,0] + c[B32,0] + 100 delta[B32,B18,0] <= 68
 PM[B32,B18,1]: - c[B18,1] + c[B32,1] + 10000 delta[B32,B18,1] <= 9992
 PM[B32,B19,0]: - c[B19,0] + c[B32,0] + 100 delta[B32,B19,0] <= 87.5
 PM[B32,B19,1]: - c[B19,1] + c[B32,1] + 10000 delta[B32,B19,1] <= 9990.5
 PM[B32,B20,0]: - c[B20,0] + c[B32,0] + 100 delta[B32,B20,0] <= 84
 PM[B32,B20,1]: - c[B20,1] + c[B32,1] + 10000 delta[B32,B20,1] <= 9990.5
 PM[B32,B21,0]: - c[B21,0] + c[B32,0] + 100 delta[B32,B21,0] <= 68
 PM[B32,B21,1]: - c[B21,1] + c[B32,1] + 10000 delta[B32,B21,1] <= 9989.5
 PM[B32,B22,0]: - c[B22,0] + c[B32,0] + 100 delta[B32,B22,0] <= 82.5
 PM[B32,B22,1]: - c[B22,1] + c[B32,1] + 10000 delta[B32,B22,1] <= 9988.5
 PM[B32,B23,0]: - c[B23,0] + c[B32,0] + 100 delta[B32,B23,0] <= 86
 PM[B32,B23,1]: - c[B23,1] + c[B32,1] + 10000 delta[B32,B23,1] <= 9987.5
 PM[B32,B24,0]: - c[B24,0] + c[B32,0] + 100 delta[B32,B24,0] <= 86
 PM[B32,B24,1]: - c[B24,1] + c[B32,1] + 10000 delta[B32,B24,1] <= 9987
 PM[B32,B25,0]: - c[B25,0] + c[B32,0] + 100 delta[B32,B25,0] <= 75
 PM[B32,B25,1]: - c[B25,1] + c[B32,1] + 10000 delta[B32,B25,1] <= 9990
 PM[B32,B26,0]: - c[B26,0] + c[B32,0] + 100 delta[B32,B26,0] <= 87.5
 PM[B32,B26,1]: - c[B26,1] + c[B32,1] + 10000 delta[B32,B26,1] <= 9992
 PM[B32,B27,0]: - c[B27,0] + c[B32,0] + 100 delta[B32,B27,0] <= 83
 PM[B32,B27,1]: - c[B27,1] + c[B32,1] + 10000 delta[B32,B27,1] <= 9983
 PM[B32,B28,0]: - c[B28,0] + c[B32,0] + 100 delta[B32,B28,0] <= 74.5
 PM[B32,B28,1]: - c[B28,1] + c[B32,1] + 10000 delta[B32,B28,1] <= 9989
 PM[B32,B29,0]: - c[B29,0] + c[B32,0] + 100 delta[B32,B29,0] <= 86
 PM[B32,B29,1]: - c[B29,1] + c[B32,1] + 10000 delta[B32,B29,1] <= 9988
 PM[B32,B30,0]: - c[B30,0] + c[B32,0] + 100 delta[B32,B30,0] <= 89
 PM[B32,B30,1]: - c[B30,1] + c[B32,1] + 10000 delta[B32,B30,1] <= 9965.5
 PM[B32,B31,0]: - c[B31,0] + c[B32,0] + 100 delta[B32,B31,0] <= 78
 PM[B32,B31,1]: - c[B31,1] + c[B32,1] + 10000 delta[B32,B31,1] <= 9986
 PM[B32,B33,0]: c[B32,0] - c[B33,0] + 100 delta[B32,B33,0] <= 86.5
 PM[B32,B33,1]: c[B32,1] - c[B33,1] + 10000 delta[B32,B33,1] <= 9992.5
 PM[B32,B34,0]: c[B32,0] - c[B34,0] + 100 delta[B32,B34,0] <= 91.5
 PM[B32,B34,1]: c[B32,1] - c[B34,1] + 10000 delta[B32,B34,1] <= 9989
 PM[B33,B0,0]: - c[B0,0] + c[B33,0] + 99 delta[B33,B0,0] <= 82
 PM[B33,B0,1]: - c[B0,1] + c[B33,1] + 9998 delta[B33,B0,1] <= 9978.5
 PM[B33,B1,0]: - c[B1,0] + c[B33,0] + 100 delta[B33,B1,0] <= 83.5
 PM[B33,B1,1]: - c[B1,1] + c[B33,1] + 10000 delta[B33,B1,1] <= 9988.5
 PM[B33,B2,0]: - c[B2,0] + c[B33,0] + 100 delta[B33,B2,0] <= 88.5
 PM[B33,B2,1]: - c[B2,1] + c[B33,1] + 9998 delta[B33,B2,1] <= 9980.5
 PM[B33,B3,0]: - c[B3,0] + c[B33,0] + 100 delta[B33,B3,0] <= 83.5
 PM[B33,B3,1]: - c[B3,1] + c[B33,1] + 9998 delta[B33,B3,1] <= 9985.5
 PM[B33,B4,0]: - c[B4,0] + c[B33,0] + 100 delta[B33,B4,0] <= 88.5
 PM[B33,B4,1]: - c[B4,1] + c[B33,1] + 9998 delta[B33,B4,1] <= 9983.5
 PM[B33,B5,0]: - c[B5,0] + c[B33,0] + 99 delta[B33,B5,0] <= 85.5
 PM[B33,B5,1]: - c[B5,1] + c[B33,1] + 9998 delta[B33,B5,1] <= 9990
 PM[B33,B6,0]: - c[B6,0] + c[B33,0] + 99 delta[B33,B6,0] <= 78
 PM[B33,B6,1]: - c[B6,1] + c[B33,1] + 9998 delta[B33,B6,1] <= 9986
 PM[B33,B7,0]: - c[B7,0] + c[B33,0] + 99 delta[B33,B7,0] <= 76
 PM[B33,B7,1]: - c[B7,1] + c[B33,1] + 9998 delta[B33,B7,1] <= 9985
 PM[B33,B8,0]: - c[B8,0] + c[B33,0] + 100 delta[B33,B8,0] <= 88
 PM[B33,B8,1]: - c[B8,1] + c[B33,1] + 10000 delta[B33,B8,1] <= 9987
 PM[B33,B9,0]: - c[B9,0] + c[B33,0] + 99 delta[B33,B9,0] <= 79
 PM[B33,B9,1]: - c[B9,1] + c[B33,1] + 9998 delta[B33,B9,1] <= 9985.5
 PM[B33,B10,0]: - c[B10,0] + c[B33,0] + 100 delta[B33,B10,0] <= 86.5
 PM[B33,B10,1]: - c[B10,1] + c[B33,1] + 10000 delta[B33,B10,1] <= 9990
 PM[B33,B11,0]: - c[B11,0] + c[B33,0] + 99 delta[B33,B11,0] <= 81
 PM[B33,B11,1]: - c[B11,1] + c[B33,1] + 9998 delta[B33,B11,1] <= 9981
 PM[B33,B12,0]: - c[B12,0] + c[B33,0] + 100 delta[B33,B12,0] <= 82
 PM[B33,B12,1]: - c[B12,1] + c[B33,1] + 10000 delta[B33,B12,1] <= 9989
 PM[B33,B13,0]: - c[B13,0] + c[B33,0] + 99 delta[B33,B13,0] <= 81.5
 PM[B33,B13,1]: - c[B13,1] + c[B33,1] + 10000 delta[B33,B13,1] <= 9991
 PM[B33,B14,0]: - c[B14,0] + c[B33,0] + 100 delta[B33,B14,0] <= 84.5
 PM[B33,B14,1]: - c[B14,1] + c[B33,1] + 9998 delta[B33,B14,1] <= 9988.5
 PM[B33,B15,0]: - c[B15,0] + c[B33,0] + 100 delta[B33,B15,0] <= 83.5
 PM[B33,B15,1]: - c[B15,1] + c[B33,1] + 10000 delta[B33,B15,1] <= 9989
 PM[B33,B16,0]: - c[B16,0] + c[B33,0] + 100 delta[B33,B16,0] <= 85
 PM[B33,B16,1]: - c[B16,1] + c[B33,1] + 9998 delta[B33,B16,1] <= 9989
 PM[B33,B17,0]: - c[B17,0] + c[B33,0] + 100 delta[B33,B17,0] <= 84.5
 PM[B33,B17,1]: - c[B17,1] + c[B33,1] + 9998 delta[B33,B17,1] <= 9973.5
 PM[B33,B18,0]: - c[B18,0] + c[B33,0] + 99 delta[B33,B18,0] <= 65.5
 PM[B33,B18,1]: - c[B18,1] + c[B33,1] + 10000 delta[B33,B18,1] <= 9991.5
 PM[B33,B19,0]: - c[B19,0] + c[B33,0] + 100 delta[B33,B19,0] <= 85
 PM[B33,B19,1]: - c[B19,1] + c[B33,1] + 10000 delta[B33,B19,1] <= 9990
 PM[B33,B20,0]: - c[B20,0] + c[B33,0] + 99 delta[B33,B20,0] <= 81.5
 PM[B33,B20,1]: - c[B20,1] + c[B33,1] + 10000 delta[B33,B20,1] <= 9990
 PM[B33,B21,0]: - c[B21,0] + c[B33,0] + 99 delta[B33,B21,0] <= 65.5
 PM[B33,B21,1]: - c[B21,1] + c[B33,1] + 9998 delta[B33,B21,1] <= 9989
 PM[B33,B22,0]: - c[B22,0] + c[B33,0] + 99 delta[B33,B22,0] <= 80
 PM[B33,B22,1]: - c[B22,1] + c[B33,1] + 10000 delta[B33,B22,1] <= 9988
 PM[B33,B23,0]: - c[B23,0] + c[B33,0] + 99 delta[B33,B23,0] <= 83.5
 PM[B33,B23,1]: - c[B23,1] + c[B33,1] + 10000 delta[B33,B23,1] <= 9987
 PM[B33,B24,0]: - c[B24,0] + c[B33,0] + 99 delta[B33,B24,0] <= 83.5
 PM[B33,B24,1]: - c[B24,1] + c[B33,1] + 10000 delta[B33,B24,1] <= 9986.5
 PM[B33,B25,0]: - c[B25,0] + c[B33,0] + 99 delta[B33,B25,0] <= 72.5
 PM[B33,B25,1]: - c[B25,1] + c[B33,1] + 9999 delta[B33,B25,1] <= 9989.5
 PM[B33,B26,0]: - c[B26,0] + c[B33,0] + 99 delta[B33,B26,0] <= 85
 PM[B33,B26,1]: - c[B26,1] + c[B33,1] + 10000 delta[B33,B26,1] <= 9991.5
 PM[B33,B27,0]: - c[B27,0] + c[B33,0] + 99 delta[B33,B27,0] <= 80.5
 PM[B33,B27,1]: - c[B27,1] + c[B33,1] + 9998 delta[B33,B27,1] <= 9982.5
 PM[B33,B28,0]: - c[B28,0] + c[B33,0] + 99 delta[B33,B28,0] <= 72
 PM[B33,B28,1]: - c[B28,1] + c[B33,1] + 9998 delta[B33,B28,1] <= 9988.5
 PM[B33,B29,0]: - c[B29,0] + c[B33,0] + 100 delta[B33,B29,0] <= 83.5
 PM[B33,B29,1]: - c[B29,1] + c[B33,1] + 10000 delta[B33,B29,1] <= 9987.5
 PM[B33,B30,0]: - c[B30,0] + c[B33,0] + 99 delta[B33,B30,0] <= 86.5
 PM[B33,B30,1]: - c[B30,1] + c[B33,1] + 9998 delta[B33,B30,1] <= 9965
 PM[B33,B31,0]: - c[B31,0] + c[B33,0] + 99 delta[B33,B31,0] <= 75.5
 PM[B33,B31,1]: - c[B31,1] + c[B33,1] + 9999 delta[B33,B31,1] <= 9985.5
 PM[B33,B32,0]: - c[B32,0] + c[B33,0] + 100 delta[B33,B32,0] <= 85.5
 PM[B33,B32,1]: - c[B32,1] + c[B33,1] + 10000 delta[B33,B32,1] <= 9990.5
 PM[B33,B34,0]: c[B33,0] - c[B34,0] + 100 delta[B33,B34,0] <= 89
 PM[B33,B34,1]: c[B33,1] - c[B34,1] + 10000 delta[B33,B34,1] <= 9988.5
 PM[B34,B0,0]: - c[B0,0] + c[B34,0] + 100 delta[B34,B0,0] <= 88
 PM[B34,B0,1]: - c[B0,1] + c[B34,1] + 9999 delta[B34,B0,1] <= 9976
 PM[B34,B1,0]: - c[B1,0] + c[B34,0] + 100 delta[B34,B1,0] <= 89.5
 PM[B34,B1,1]: - c[B1,1] + c[B34,1] + 10000 delta[B34,B1,1] <= 9986
 PM[B34,B2,0]: - c[B2,0] + c[B34,0] + 100 delta[B34,B2,0] <= 94.5
 PM[B34,B2,1]: - c[B2,1] + c[B34,1] + 9999 delta[B34,B2,1] <= 9978
 PM[B34,B3,0]: - c[B3,0] + c[B34,0] + 100 delta[B34,B3,0] <= 89.5
 PM[B34,B3,1]: - c[B3,1] + c[B34,1] + 9999 delta[B34,B3,1] <= 9983
 PM[B34,B4,0]: - c[B4,0] + c[B34,0] + 100 delta[B34,B4,0] <= 94.5
 PM[B34,B4,1]: - c[B4,1] + c[B34,1] + 9999 delta[B34,B4,1] <= 9981
 PM[B34,B5,0]: - c[B5,0] + c[B34,0] + 100 delta[B34,B5,0] <= 91.5
 PM[B34,B5,1]: - c[B5,1] + c[B34,1] + 9999 delta[B34,B5,1] <= 9987.5
 PM[B34,B6,0]: - c[B6,0] + c[B34,0] + 100 delta[B34,B6,0] <= 84
 PM[B34,B6,1]: - c[B6,1] + c[B34,1] + 9999 delta[B34,B6,1] <= 9983.5
 PM[B34,B7,0]: - c[B7,0] + c[B34,0] + 100 delta[B34,B7,0] <= 82
 PM[B34,B7,1]: - c[B7,1] + c[B34,1] + 9999 delta[B34,B7,1] <= 9982.5
 PM[B34,B8,0]: - c[B8,0] + c[B34,0] + 100 delta[B34,B8,0] <= 94
 PM[B34,B8,1]: - c[B8,1] + c[B34,1] + 10000 delta[B34,B8,1] <= 9984.5
 PM[B34,B9,0]: - c[B9,0] + c[B34,0] + 100 delta[B34,B9,0] <= 85
 PM[B34,B9,1]: - c[B9,1] + c[B34,1] + 9999 delta[B34,B9,1] <= 9983
 PM[B34,B10,0]: - c[B10,0] + c[B34,0] + 100 delta[B34,B10,0] <= 92.5
 PM[B34,B10,1]: - c[B10,1] + c[B34,1] + 10000 delta[B34,B10,1] <= 9987.5
 PM[B34,B11,0]: - c[B11,0] + c[B34,0] + 100 delta[B34,B11,0] <= 87
 PM[B34,B11,1]: - c[B11,1] + c[B34,1] + 9999 delta[B34,B11,1] <= 9978.5
 PM[B34,B12,0]: - c[B12,0] + c[B34,0] + 100 delta[B34,B12,0] <= 88
 PM[B34,B12,1]: - c[B12,1] + c[B34,1] + 10000 delta[B34,B12,1] <= 9986.5
 PM[B34,B13,0]: - c[B13,0] + c[B34,0] + 100 delta[B34,B13,0] <= 87.5
 PM[B34,B13,1]: - c[B13,1] + c[B34,1] + 10000 delta[B34,B13,1] <= 9988.5
 PM[B34,B14,0]: - c[B14,0] + c[B34,0] + 100 delta[B34,B14,0] <= 90.5
 PM[B34,B14,1]: - c[B14,1] + c[B34,1] + 9999 delta[B34,B14,1] <= 9986
 PM[B34,B15,0]: - c[B15,0] + c[B34,0] + 100 delta[B34,B15,0] <= 89.5
 PM[B34,B15,1]: - c[B15,1] + c[B34,1] + 10000 delta[B34,B15,1] <= 9986.5
 PM[B34,B16,0]: - c[B16,0] + c[B34,0] + 100 delta[B34,B16,0] <= 91
 PM[B34,B16,1]: - c[B16,1] + c[B34,1] + 9999 delta[B34,B16,1] <= 9986.5
 PM[B34,B17,0]: - c[B17,0] + c[B34,0] + 100 delta[B34,B17,0] <= 90.5
 PM[B34,B17,1]: - c[B17,1] + c[B34,1] + 9999 delta[B34,B17,1] <= 9971
 PM[B34,B18,0]: - c[B18,0] + c[B34,0] + 100 delta[B34,B18,0] <= 71.5
 PM[B34,B18,1]: - c[B18,1] + c[B34,1] + 10000 delta[B34,B18,1] <= 9989
 PM[B34,B19,0]: - c[B19,0] + c[B34,0] + 100 delta[B34,B19,0] <= 91
 PM[B34,B19,1]: - c[B19,1] + c[B34,1] + 10000 delta[B34,B19,1] <= 9987.5
 PM[B34,B20,0]: - c[B20,0] + c[B34,0] + 100 delta[B34,B20,0] <= 87.5
 PM[B34,B20,1]: - c[B20,1] + c[B34,1] + 10000 delta[B34,B20,1] <= 9987.5
 PM[B34,B21,0]: - c[B21,0] + c[B34,0] + 100 delta[B34,B21,0] <= 71.5
 PM[B34,B21,1]: - c[B21,1] + c[B34,1] + 9999 delta[B34,B21,1] <= 9986.5
 PM[B34,B22,0]: - c[B22,0] + c[B34,0] + 100 delta[B34,B22,0] <= 86
 PM[B34,B22,1]: - c[B22,1] + c[B34,1] + 10000 delta[B34,B22,1] <= 9985.5
 PM[B34,B23,0]: - c[B23,0] + c[B34,0] + 100 delta[B34,B23,0] <= 89.5
 PM[B34,B23,1]: - c[B23,1] + c[B34,1] + 10000 delta[B34,B23,1] <= 9984.5
 PM[B34,B24,0]: - c[B24,0] + c[B34,0] + 100 delta[B34,B24,0] <= 89.5
 PM[B34,B24,1]: - c[B24,1] + c[B34,1] + 10000 delta[B34,B24,1] <= 9984
 PM[B34,B25,0]: - c[B25,0] + c[B34,0] + 100 delta[B34,B25,0] <= 78.5
 PM[B34,B25,1]: - c[B25,1] + c[B34,1] + 9999 delta[B34,B25,1] <= 9987
 PM[B34,B26,0]: - c[B26,0] + c[B34,0] + 100 delta[B34,B26,0] <= 91
 PM[B34,B26,1]: - c[B26,1] + c[B34,1] + 10000 delta[B34,B26,1] <= 9989
 PM[B34,B27,0]: - c[B27,0] + c[B34,0] + 100 delta[B34,B27,0] <= 86.5
 PM[B34,B27,1]: - c[B27,1] + c[B34,1] + 9999 delta[B34,B27,1] <= 9980
 PM[B34,B28,0]: - c[B28,0] + c[B34,0] + 100 delta[B34,B28,0] <= 78
 PM[B34,B28,1]: - c[B28,1] + c[B34,1] + 9999 delta[B34,B28,1] <= 9986
 PM[B34,B29,0]: - c[B29,0] + c[B34,0] + 100 delta[B34,B29,0] <= 89.5
 PM[B34,B29,1]: - c[B29,1] + c[B34,1] + 10000 delta[B34,B29,1] <= 9985
 PM[B34,B30,0]: - c[B30,0] + c[B34,0] + 100 delta[B34,B30,0] <= 92.5
 PM[B34,B30,1]: - c[B30,1] + c[B34,1] + 9999 delta[B34,B30,1] <= 9962.5
 PM[B34,B31,0]: - c[B31,0] + c[B34,0] + 100 delta[B34,B31,0] <= 81.5
 PM[B34,B31,1]: - c[B31,1] + c[B34,1] + 9999 delta[B34,B31,1] <= 9983
 PM[B34,B32,0]: - c[B32,0] + c[B34,0] + 100 delta[B34,B32,0] <= 91.5
 PM[B34,B32,1]: - c[B32,1] + c[B34,1] + 10000 delta[B34,B32,1] <= 9988
 PM[B34,B33,0]: - c[B33,0] + c[B34,0] + 100 delta[B34,B33,0] <= 90
 PM[B34,B33,1]: - c[B33,1] + c[B34,1] + 10000 delta[B34,B33,1] <= 9989.5
 S1[B0,B1]: delta[B0,B1,0] + delta[B0,B1,1] + delta[B1,B0,0]
   + delta[B1,B0,1] = 1
 S1[B0,B2]: delta[B0,B2,0] + delta[B0,B2,1] + delta[B2,B0,0]
   + delta[B2,B0,1] = 1
 S1[B0,B3]: delta[B0,B3,0] + delta[B0,B3,1] + delta[B3,B0,0]
   + delta[B3,B0,1] = 1
 S1[B0,B4]: delta[B0,B4,0] + delta[B0,B4,1] + delta[B4,B0,0]
   + delta[B4,B0,1] = 1
 S1[B0,B5]: delta[B0,B5,0] + delta[B0,B5,1] + delta[B5,B0,0]
   + delta[B5,B0,1] = 1
 S1[B0,B6]: delta[B0,B6,0] + delta[B0,B6,1] + delta[B6,B0,0]
   + delta[B6,B0,1] = 1
 S1[B0,B7]: delta[B0,B7,0] + delta[B0,B7,1] + delta[B7,B0,0]
   + delta[B7,B0,1] = 1
 S1[B0,B8]: delta[B0,B8,0] + delta[B0,B8,1] + delta[B8,B0,0]
   + delta[B8,B0,1] = 1
 S1[B0,B9]: delta[B0,B9,0] + delta[B0,B9,1] + delta[B9,B0,0]
   + delta[B9,B0,1] = 1
 S1[B0,B10]: delta[B0,B10,0] + delta[B0,B10,1] + delta[B10,B0,0]
   + delta[B10,B0,1] = 1
 S1[B0,B11]: delta[B0,B11,0] + delta[B0,B11,1] + delta[B11,B0,0]
   + delta[B11,B0,1] = 1
 S1[B0,B12]: delta[B0,B12,0] + delta[B0,B12,1] + delta[B12,B0,0]
   + delta[B12,B0,1] = 1
 S1[B0,B13]: delta[B0,B13,0] + delta[B0,B13,1] + delta[B13,B0,0]
   + delta[B13,B0,1] = 1
 S1[B0,B14]: delta[B0,B14,0] + delta[B0,B14,1] + delta[B14,B0,0]
   + delta[B14,B0,1] = 1
 S1[B0,B15]: delta[B0,B15,0] + delta[B0,B15,1] + delta[B15,B0,0]
   + delta[B15,B0,1] = 1
 S1[B0,B16]: delta[B0,B16,0] + delta[B0,B16,1] + delta[B16,B0,0]
   + delta[B16,B0,1] = 1
 S1[B0,B17]: delta[B0,B17,0] + delta[B0,B17,1] + delta[B17,B0,0]
   + delta[B17,B0,1] = 1
 S1[B0,B18]: delta[B0,B18,0] + delta[B0,B18,1] + delta[B18,B0,0]
   + delta[B18,B0,1] = 1
 S1[B0,B19]: delta[B0,B19,0] + delta[B0,B19,1] + delta[B19,B0,0]
   + delta[B19,B0,1] = 1
 S1[B0,B20]: delta[B0,B20,0] + delta[B0,B20,1] + delta[B20,B0,0]
   + delta[B20,B0,1] = 1
 S1[B0,B21]: delta[B0,B21,0] + delta[B0,B21,1] + delta[B21,B0,0]
   + delta[B21,B0,1] = 1
 S1[B0,B22]: delta[B0,B22,0] + delta[B0,B22,1] + delta[B22,B0,0]
   + delta[B22,B0,1] = 1
 S1[B0,B23]: delta[B0,B23,0] + delta[B0,B23,1] + delta[B23,B0,0]
   + delta[B23,B0,1] = 1
 S1[B0,B24]: delta[B0,B24,0] + delta[B0,B24,1] + delta[B24,B0,0]
   + delta[B24,B0,1] = 1
 S1[B0,B25]: delta[B0,B25,0] + delta[B0,B25,1] + delta[B25,B0,0]
   + delta[B25,B0,1] = 1
 S1[B0,B26]: delta[B0,B26,0] + delta[B0,B26,1] + delta[B26,B0,0]
   + delta[B26,B0,1] = 1
 S1[B0,B27]: delta[B0,B27,0] + delta[B0,B27,1] + delta[B27,B0,0]
   + delta[B27,B0,1] = 1
 S1[B0,B28]: delta[B0,B28,0] + delta[B0,B28,1] + delta[B28,B0,0]
   + delta[B28,B0,1] = 1
 S1[B0,B29]: delta[B0,B29,0] + delta[B0,B29,1] + delta[B29,B0,0]
   + delta[B29,B0,1] = 1
 S1[B0,B30]: delta[B0,B30,0] + delta[B0,B30,1] + delta[B30,B0,0]
   + delta[B30,B0,1] = 1
 S1[B0,B31]: delta[B0,B31,0] + delta[B0,B31,1] + delta[B31,B0,0]
   + delta[B31,B0,1] = 1
 S1[B0,B32]: delta[B0,B32,0] + delta[B0,B32,1] + delta[B32,B0,0]
   + delta[B32,B0,1] = 1
 S1[B0,B33]: delta[B0,B33,0] + delta[B0,B33,1] + delta[B33,B0,0]
   + delta[B33,B0,1] = 1
 S1[B0,B34]: delta[B0,B34,0] + delta[B0,B34,1] + delta[B34,B0,0]
   + delta[B34,B0,1] = 1
 S1[B1,B2]: delta[B1,B2,0] + delta[B1,B2,1] + delta[B2,B1,0]
   + delta[B2,B1,1] = 1
 S1[B1,B3]: delta[B1,B3,0] + delta[B1,B3,1] + delta[B3,B1,0]
   + delta[B3,B1,1] = 1
 S1[B1,B4]: delta[B1,B4,0] + delta[B1,B4,1] + delta[B4,B1,0]
   + delta[B4,B1,1] = 1
 S1[B1,B5]: delta[B1,B5,0] + delta[B1,B5,1] + delta[B5,B1,0]
   + delta[B5,B1,1] = 1
 S1[B1,B6]: delta[B1,B6,0] + delta[B1,B6,1] + delta[B6,B1,0]
   + delta[B6,B1,1] = 1
 S1[B1,B7]: delta[B1,B7,0] + delta[B1,B7,1] + delta[B7,B1,0]
   + delta[B7,B1,1] = 1
 S1[B1,B8]: delta[B1,B8,0] + delta[B1,B8,1] + delta[B8,B1,0]
   + delta[B8,B1,1] = 1
 S1[B1,B9]: delta[B1,B9,0] + delta[B1,B9,1] + delta[B9,B1,0]
   + delta[B9,B1,1] = 1
 S1[B1,B10]: delta[B1,B10,0] + delta[B1,B10,1] + delta[B10,B1,0]
   + delta[B10,B1,1] = 1
 S1[B1,B11]: delta[B1,B11,0] + delta[B1,B11,1] + delta[B11,B1,0]
   + delta[B11,B1,1] = 1
 S1[B1,B12]: delta[B1,B12,0] + delta[B1,B12,1] + delta[B12,B1,0]
   + delta[B12,B1,1] = 1
 S1[B1,B13]: delta[B1,B13,0] + delta[B1,B13,1] + delta[B13,B1,0]
   + delta[B13,B1,1] = 1
 S1[B1,B14]: delta[B1,B14,0] + delta[B1,B14,1] + delta[B14,B1,0]
   + delta[B14,B1,1] = 1
 S1[B1,B15]: delta[B1,B15,0] + delta[B1,B15,1] + delta[B15,B1,0]
   + delta[B15,B1,1] = 1
 S1[B1,B16]: delta[B1,B16,0] + delta[B1,B16,1] + delta[B16,B1,0]
   + delta[B16,B1,1] = 1
 S1[B1,B17]: delta[B1,B17,0] + delta[B1,B17,1] + delta[B17,B1,0]
   + delta[B17,B1,1] = 1
 S1[B1,B18]: delta[B1,B18,0] + delta[B1,B18,1] + delta[B18,B1,0]
   + delta[B18,B1,1] = 1
 S1[B1,B19]: delta[B1,B19,0] + delta[B1,B19,1] + delta[B19,B1,0]
   + delta[B19,B1,1] = 1
 S1[B1,B20]: delta[B1,B20,0] + delta[B1,B20,1] + delta[B20,B1,0]
   + delta[B20,B1,1] = 1
 S1[B1,B21]: delta[B1,B21,0] + delta[B1,B21,1] + delta[B21,B1,0]
   + delta[B21,B1,1] = 1
 S1[B1,B22]: delta[B1,B22,0] + delta[B1,B22,1] + delta[B22,B1,0]
   + delta[B22,B1,1] = 1
 S1[B1,B23]: delta[B1,B23,0] + delta[B1,B23,1] + delta[B23,B1,0]
   + delta[B23,B1,1] = 1
 S1[B1,B24]: delta[B1,B24,0] + delta[B1,B24,1] + delta[B24,B1,0]
   + delta[B24,B1,1] = 1
 S1[B1,B25]: delta[B1,B25,0] + delta[B1,B25,1] + delta[B25,B1,0]
   + delta[B25,B1,1] = 1
 S1[B1,B26]: delta[B1,B26,0] + delta[B1,B26,1] + delta[B26,B1,0]
   + delta[B26,B1,1] = 1
 S1[B1,B27]: delta[B1,B27,0] + delta[B1,B27,1] + delta[B27,B1,0]
   + delta[B27,B1,1] = 1
 S1[B1,B28]: delta[B1,B28,0] + delta[B1,B28,1] + delta[B28,B1,0]
   + delta[B28,B1,1] = 1
 S1[B1,B29]: delta[B1,B29,0] + delta[B1,B29,1] + delta[B29,B1,0]
   + delta[B29,B1,1] = 1
 S1[B1,B30]: delta[B1,B30,0] + delta[B1,B30,1] + delta[B30,B1,0]
   + delta[B30,B1,1] = 1
 S1[B1,B31]: delta[B1,B31,0] + delta[B1,B31,1] + delta[B31,B1,0]
   + delta[B31,B1,1] = 1
 S1[B1,B32]: delta[B1,B32,0] + delta[B1,B32,1] + delta[B32,B1,0]
   + delta[B32,B1,1] = 1
 S1[B1,B33]: delta[B1,B33,0] + delta[B1,B33,1] + delta[B33,B1,0]
   + delta[B33,B1,1] = 1
 S1[B1,B34]: delta[B1,B34,0] + delta[B1,B34,1] + delta[B34,B1,0]
   + delta[B34,B1,1] = 1
 S1[B2,B3]: delta[B2,B3,0] + delta[B2,B3,1] + delta[B3,B2,0]
   + delta[B3,B2,1] = 1
 S1[B2,B4]: delta[B2,B4,0] + delta[B2,B4,1] + delta[B4,B2,0]
   + delta[B4,B2,1] = 1
 S1[B2,B5]: delta[B2,B5,0] + delta[B2,B5,1] + delta[B5,B2,0]
   + delta[B5,B2,1] = 1
 S1[B2,B6]: delta[B2,B6,0] + delta[B2,B6,1] + delta[B6,B2,0]
   + delta[B6,B2,1] = 1
 S1[B2,B7]: delta[B2,B7,0] + delta[B2,B7,1] + delta[B7,B2,0]
   + delta[B7,B2,1] = 1
 S1[B2,B8]: delta[B2,B8,0] + delta[B2,B8,1] + delta[B8,B2,0]
   + delta[B8,B2,1] = 1
 S1[B2,B9]: delta[B2,B9,0] + delta[B2,B9,1] + delta[B9,B2,0]
   + delta[B9,B2,1] = 1
 S1[B2,B10]: delta[B2,B10,0] + delta[B2,B10,1] + delta[B10,B2,0]
   + delta[B10,B2,1] = 1
 S1[B2,B11]: delta[B2,B11,0] + delta[B2,B11,1] + delta[B11,B2,0]
   + delta[B11,B2,1] = 1
 S1[B2,B12]: delta[B2,B12,0] + delta[B2,B12,1] + delta[B12,B2,0]
   + delta[B12,B2,1] = 1
 S1[B2,B13]: delta[B2,B13,0] + delta[B2,B13,1] + delta[B13,B2,0]
   + delta[B13,B2,1] = 1
 S1[B2,B14]: delta[B2,B14,0] + delta[B2,B14,1] + delta[B14,B2,0]
   + delta[B14,B2,1] = 1
 S1[B2,B15]: delta[B2,B15,0] + delta[B2,B15,1] + delta[B15,B2,0]
   + delta[B15,B2,1] = 1
 S1[B2,B16]: delta[B2,B16,0] + delta[B2,B16,1] + delta[B16,B2,0]
   + delta[B16,B2,1] = 1
 S1[B2,B17]: delta[B2,B17,0] + delta[B2,B17,1] + delta[B17,B2,0]
   + delta[B17,B2,1] = 1
 S1[B2,B18]: delta[B2,B18,0] + delta[B2,B18,1] + delta[B18,B2,0]
   + delta[B18,B2,1] = 1
 S1[B2,B19]: delta[B2,B19,0] + delta[B2,B19,1] + delta[B19,B2,0]
   + delta[B19,B2,1] = 1
 S1[B2,B20]: delta[B2,B20,0] + delta[B2,B20,1] + delta[B20,B2,0]
   + delta[B20,B2,1] = 1
 S1[B2,B21]: delta[B2,B21,0] + delta[B2,B21,1] + delta[B21,B2,0]
   + delta[B21,B2,1] = 1
 S1[B2,B22]: delta[B2,B22,0] + delta[B2,B22,1] + delta[B22,B2,0]
   + delta[B22,B2,1] = 1
 S1[B2,B23]: delta[B2,B23,0] + delta[B2,B23,1] + delta[B23,B2,0]
   + delta[B23,B2,1] = 1
 S1[B2,B24]: delta[B2,B24,0] + delta[B2,B24,1] + delta[B24,B2,0]
   + delta[B24,B2,1] = 1
 S1[B2,B25]: delta[B2,B25,0] + delta[B2,B25,1] + delta[B25,B2,0]
   + delta[B25,B2,1] = 1
 S1[B2,B26]: delta[B2,B26,0] + delta[B2,B26,1] + delta[B26,B2,0]
   + delta[B26,B2,1] = 1
 S1[B2,B27]: delta[B2,B27,0] + delta[B2,B27,1] + delta[B27,B2,0]
   + delta[B27,B2,1] = 1
 S1[B2,B28]: delta[B2,B28,0] + delta[B2,B28,1] + delta[B28,B2,0]
   + delta[B28,B2,1] = 1
 S1[B2,B29]: delta[B2,B29,0] + delta[B2,B29,1] + delta[B29,B2,0]
   + delta[B29,B2,1] = 1
 S1[B2,B30]: delta[B2,B30,0] + delta[B2,B30,1] + delta[B30,B2,0]
   + delta[B30,B2,1] = 1
 S1[B2,B31]: delta[B2,B31,0] + delta[B2,B31,1] + delta[B31,B2,0]
   + delta[B31,B2,1] = 1
 S1[B2,B32]: delta[B2,B32,0] + delta[B2,B32,1] + delta[B32,B2,0]
   + delta[B32,B2,1] = 1
 S1[B2,B33]: delta[B2,B33,0] + delta[B2,B33,1] + delta[B33,B2,0]
   + delta[B33,B2,1] = 1
 S1[B2,B34]: delta[B2,B34,0] + delta[B2,B34,1] + delta[B34,B2,0]
   + delta[B34,B2,1] = 1
 S1[B3,B4]: delta[B3,B4,0] + delta[B3,B4,1] + delta[B4,B3,0]
   + delta[B4,B3,1] = 1
 S1[B3,B5]: delta[B3,B5,0] + delta[B3,B5,1] + delta[B5,B3,0]
   + delta[B5,B3,1] = 1
 S1[B3,B6]: delta[B3,B6,0] + delta[B3,B6,1] + delta[B6,B3,0]
   + delta[B6,B3,1] = 1
 S1[B3,B7]: delta[B3,B7,0] + delta[B3,B7,1] + delta[B7,B3,0]
   + delta[B7,B3,1] = 1
 S1[B3,B8]: delta[B3,B8,0] + delta[B3,B8,1] + delta[B8,B3,0]
   + delta[B8,B3,1] = 1
 S1[B3,B9]: delta[B3,B9,0] + delta[B3,B9,1] + delta[B9,B3,0]
   + delta[B9,B3,1] = 1
 S1[B3,B10]: delta[B3,B10,0] + delta[B3,B10,1] + delta[B10,B3,0]
   + delta[B10,B3,1] = 1
 S1[B3,B11]: delta[B3,B11,0] + delta[B3,B11,1] + delta[B11,B3,0]
   + delta[B11,B3,1] = 1
 S1[B3,B12]: delta[B3,B12,0] + delta[B3,B12,1] + delta[B12,B3,0]
   + delta[B12,B3,1] = 1
 S1[B3,B13]: delta[B3,B13,0] + delta[B3,B13,1] + delta[B13,B3,0]
   + delta[B13,B3,1] = 1
 S1[B3,B14]: delta[B3,B14,0] + delta[B3,B14,1] + delta[B14,B3,0]
   + delta[B14,B3,1] = 1
 S1[B3,B15]: delta[B3,B15,0] + delta[B3,B15,1] + delta[B15,B3,0]
   + delta[B15,B3,1] = 1
 S1[B3,B16]: delta[B3,B16,0] + delta[B3,B16,1] + delta[B16,B3,0]
   + delta[B16,B3,1] = 1
 S1[B3,B17]: delta[B3,B17,0] + delta[B3,B17,1] + delta[B17,B3,0]
   + delta[B17,B3,1] = 1
 S1[B3,B18]: delta[B3,B18,0] + delta[B3,B18,1] + delta[B18,B3,0]
   + delta[B18,B3,1] = 1
 S1[B3,B19]: delta[B3,B19,0] + delta[B3,B19,1] + delta[B19,B3,0]
   + delta[B19,B3,1] = 1
 S1[B3,B20]: delta[B3,B20,0] + delta[B3,B20,1] + delta[B20,B3,0]
   + delta[B20,B3,1] = 1
 S1[B3,B21]: delta[B3,B21,0] + delta[B3,B21,1] + delta[B21,B3,0]
   + delta[B21,B3,1] = 1
 S1[B3,B22]: delta[B3,B22,0] + delta[B3,B22,1] + delta[B22,B3,0]
   + delta[B22,B3,1] = 1
 S1[B3,B23]: delta[B3,B23,0] + delta[B3,B23,1] + delta[B23,B3,0]
   + delta[B23,B3,1] = 1
 S1[B3,B24]: delta[B3,B24,0] + delta[B3,B24,1] + delta[B24,B3,0]
   + delta[B24,B3,1] = 1
 S1[B3,B25]: delta[B3,B25,0] + delta[B3,B25,1] + delta[B25,B3,0]
   + delta[B25,B3,1] = 1
 S1[B3,B26]: delta[B3,B26,0] + delta[B3,B26,1] + delta[B26,B3,0]
   + delta[B26,B3,1] = 1
 S1[B3,B27]: delta[B3,B27,0] + delta[B3,B27,1] + delta[B27,B3,0]
   + delta[B27,B3,1] = 1
 S1[B3,B28]: delta[B3,B28,0] + delta[B3,B28,1] + delta[B28,B3,0]
   + delta[B28,B3,1] = 1
 S1[B3,B29]: delta[B3,B29,0] + delta[B3,B29,1] + delta[B29,B3,0]
   + delta[B29,B3,1] = 1
 S1[B3,B30]: delta[B3,B30,0] + delta[B3,B30,1] + delta[B30,B3,0]
   + delta[B30,B3,1] = 1
 S1[B3,B31]: delta[B3,B31,0] + delta[B3,B31,1] + delta[B31,B3,0]
   + delta[B31,B3,1] = 1
 S1[B3,B32]: delta[B3,B32,0] + delta[B3,B32,1] + delta[B32,B3,0]
   + delta[B32,B3,1] = 1
 S1[B3,B33]: delta[B3,B33,0] + delta[B3,B33,1] + delta[B33,B3,0]
   + delta[B33,B3,1] = 1
 S1[B3,B34]: delta[B3,B34,0] + delta[B3,B34,1] + delta[B34,B3,0]
   + delta[B34,B3,1] = 1
 S1[B4,B5]: delta[B4,B5,0] + delta[B4,B5,1] + delta[B5,B4,0]
   + delta[B5,B4,1] = 1
 S1[B4,B6]: delta[B4,B6,0] + delta[B4,B6,1] + delta[B6,B4,0]
   + delta[B6,B4,1] = 1
 S1[B4,B7]: delta[B4,B7,0] + delta[B4,B7,1] + delta[B7,B4,0]
   + delta[B7,B4,1] = 1
 S1[B4,B8]: delta[B4,B8,0] + delta[B4,B8,1] + delta[B8,B4,0]
   + delta[B8,B4,1] = 1
 S1[B4,B9]: delta[B4,B9,0] + delta[B4,B9,1] + delta[B9,B4,0]
   + delta[B9,B4,1] = 1
 S1[B4,B10]: delta[B4,B10,0] + delta[B4,B10,1] + delta[B10,B4,0]
   + delta[B10,B4,1] = 1
 S1[B4,B11]: delta[B4,B11,0] + delta[B4,B11,1] + delta[B11,B4,0]
   + delta[B11,B4,1] = 1
 S1[B4,B12]: delta[B4,B12,0] + delta[B4,B12,1] + delta[B12,B4,0]
   + delta[B12,B4,1] = 1
 S1[B4,B13]: delta[B4,B13,0] + delta[B4,B13,1] + delta[B13,B4,0]
   + delta[B13,B4,1] = 1
 S1[B4,B14]: delta[B4,B14,0] + delta[B4,B14,1] + delta[B14,B4,0]
   + delta[B14,B4,1] = 1
 S1[B4,B15]: delta[B4,B15,0] + delta[B4,B15,1] + delta[B15,B4,0]
   + delta[B15,B4,1] = 1
 S1[B4,B16]: delta[B4,B16,0] + delta[B4,B16,1] + delta[B16,B4,0]
   + delta[B16,B4,1] = 1
 S1[B4,B17]: delta[B4,B17,0] + delta[B4,B17,1] + delta[B17,B4,0]
   + delta[B17,B4,1] = 1
 S1[B4,B18]: delta[B4,B18,0] + delta[B4,B18,1] + delta[B18,B4,0]
   + delta[B18,B4,1] = 1
 S1[B4,B19]: delta[B4,B19,0] + delta[B4,B19,1] + delta[B19,B4,0]
   + delta[B19,B4,1] = 1
 S1[B4,B20]: delta[B4,B20,0] + delta[B4,B20,1] + delta[B20,B4,0]
   + delta[B20,B4,1] = 1
 S1[B4,B21]: delta[B4,B21,0] + delta[B4,B21,1] + delta[B21,B4,0]
   + delta[B21,B4,1] = 1
 S1[B4,B22]: delta[B4,B22,0] + delta[B4,B22,1] + delta[B22,B4,0]
   + delta[B22,B4,1] = 1
 S1[B4,B23]: delta[B4,B23,0] + delta[B4,B23,1] + delta[B23,B4,0]
   + delta[B23,B4,1] = 1
 S1[B4,B24]: delta[B4,B24,0] + delta[B4,B24,1] + delta[B24,B4,0]
   + delta[B24,B4,1] = 1
 S1[B4,B25]: delta[B4,B25,0] + delta[B4,B25,1] + delta[B25,B4,0]
   + delta[B25,B4,1] = 1
 S1[B4,B26]: delta[B4,B26,0] + delta[B4,B26,1] + delta[B26,B4,0]
   + delta[B26,B4,1] = 1
 S1[B4,B27]: delta[B4,B27,0] + delta[B4,B27,1] + delta[B27,B4,0]
   + delta[B27,B4,1] = 1
 S1[B4,B28]: delta[B4,B28,0] + delta[B4,B28,1] + delta[B28,B4,0]
   + delta[B28,B4,1] = 1
 S1[B4,B29]: delta[B4,B29,0] + delta[B4,B29,1] + delta[B29,B4,0]
   + delta[B29,B4,1] = 1
 S1[B4,B30]: delta[B4,B30,0] + delta[B4,B30,1] + delta[B30,B4,0]
   + delta[B30,B4,1] = 1
 S1[B4,B31]: delta[B4,B31,0] + delta[B4,B31,1] + delta[B31,B4,0]
   + delta[B31,B4,1] = 1
 S1[B4,B32]: delta[B4,B32,0] + delta[B4,B32,1] + delta[B32,B4,0]
   + delta[B32,B4,1] = 1
 S1[B4,B33]: delta[B4,B33,0] + delta[B4,B33,1] + delta[B33,B4,0]
   + delta[B33,B4,1] = 1
 S1[B4,B34]: delta[B4,B34,0] + delta[B4,B34,1] + delta[B34,B4,0]
   + delta[B34,B4,1] = 1
 S1[B5,B6]: delta[B5,B6,0] + delta[B5,B6,1] + delta[B6,B5,0]
   + delta[B6,B5,1] = 1
 S1[B5,B7]: delta[B5,B7,0] + delta[B5,B7,1] + delta[B7,B5,0]
   + delta[B7,B5,1] = 1
 S1[B5,B8]: delta[B5,B8,0] + delta[B5,B8,1] + delta[B8,B5,0]
   + delta[B8,B5,1] = 1
 S1[B5,B9]: delta[B5,B9,0] + delta[B5,B9,1] + delta[B9,B5,0]
   + delta[B9,B5,1] = 1
 S1[B5,B10]: delta[B5,B10,0] + delta[B5,B10,1] + delta[B10,B5,0]
   + delta[B10,B5,1] = 1
 S1[B5,B11]: delta[B5,B11,0] + delta[B5,B11,1] + delta[B11,B5,0]
   + delta[B11,B5,1] = 1
 S1[B5,B12]: delta[B5,B12,0] + delta[B5,B12,1] + delta[B12,B5,0]
   + delta[B12,B5,1] = 1
 S1[B5,B13]: delta[B5,B13,0] + delta[B5,B13,1] + delta[B13,B5,0]
   + delta[B13,B5,1] = 1
 S1[B5,B14]: delta[B5,B14,0] + delta[B5,B14,1] + delta[B14,B5,0]
   + delta[B14,B5,1] = 1
 S1[B5,B15]: delta[B5,B15,0] + delta[B5,B15,1] + delta[B15,B5,0]
   + delta[B15,B5,1] = 1
 S1[B5,B16]: delta[B5,B16,0] + delta[B5,B16,1] + delta[B16,B5,0]
   + delta[B16,B5,1] = 1
 S1[B5,B17]: delta[B5,B17,0] + delta[B5,B17,1] + delta[B17,B5,0]
   + delta[B17,B5,1] = 1
 S1[B5,B18]: delta[B5,B18,0] + delta[B5,B18,1] + delta[B18,B5,0]
   + delta[B18,B5,1] = 1
 S1[B5,B19]: delta[B5,B19,0] + delta[B5,B19,1] + delta[B19,B5,0]
   + delta[B19,B5,1] = 1
 S1[B5,B20]: delta[B5,B20,0] + delta[B5,B20,1] + delta[B20,B5,0]
   + delta[B20,B5,1] = 1
 S1[B5,B21]: delta[B5,B21,0] + delta[B5,B21,1] + delta[B21,B5,0]
   + delta[B21,B5,1] = 1
 S1[B5,B22]: delta[B5,B22,0] + delta[B5,B22,1] + delta[B22,B5,0]
   + delta[B22,B5,1] = 1
 S1[B5,B23]: delta[B5,B23,0] + delta[B5,B23,1] + delta[B23,B5,0]
   + delta[B23,B5,1] = 1
 S1[B5,B24]: delta[B5,B24,0] + delta[B5,B24,1] + delta[B24,B5,0]
   + delta[B24,B5,1] = 1
 S1[B5,B25]: delta[B5,B25,0] + delta[B5,B25,1] + delta[B25,B5,0]
   + delta[B25,B5,1] = 1
 S1[B5,B26]: delta[B5,B26,0] + delta[B5,B26,1] + delta[B26,B5,0]
   + delta[B26,B5,1] = 1
 S1[B5,B27]: delta[B5,B27,0] + delta[B5,B27,1] + delta[B27,B5,0]
   + delta[B27,B5,1] = 1
 S1[B5,B28]: delta[B5,B28,0] + delta[B5,B28,1] + delta[B28,B5,0]
   + delta[B28,B5,1] = 1
 S1[B5,B29]: delta[B5,B29,0] + delta[B5,B29,1] + delta[B29,B5,0]
   + delta[B29,B5,1] = 1
 S1[B5,B30]: delta[B5,B30,0] + delta[B5,B30,1] + delta[B30,B5,0]
   + delta[B30,B5,1] = 1
 S1[B5,B31]: delta[B5,B31,0] + delta[B5,B31,1] + delta[B31,B5,0]
   + delta[B31,B5,1] = 1
 S1[B5,B32]: delta[B5,B32,0] + delta[B5,B32,1] + delta[B32,B5,0]
   + delta[B32,B5,1] = 1
 S1[B5,B33]: delta[B5,B33,0] + delta[B5,B33,1] + delta[B33,B5,0]
   + delta[B33,B5,1] = 1
 S1[B5,B34]: delta[B5,B34,0] + delta[B5,B34,1] + delta[B34,B5,0]
   + delta[B34,B5,1] = 1
 S1[B6,B7]: delta[B6,B7,0] + delta[B6,B7,1] + delta[B7,B6,0]
   + delta[B7,B6,1] = 1
 S1[B6,B8]: delta[B6,B8,0] + delta[B6,B8,1] + delta[B8,B6,0]
   + delta[B8,B6,1] = 1
 S1[B6,B9]: delta[B6,B9,0] + delta[B6,B9,1] + delta[B9,B6,0]
   + delta[B9,B6,1] = 1
 S1[B6,B10]: delta[B6,B10,0] + delta[B6,B10,1] + delta[B10,B6,0]
   + delta[B10,B6,1] = 1
 S1[B6,B11]: delta[B6,B11,0] + delta[B6,B11,1] + delta[B11,B6,0]
   + delta[B11,B6,1] = 1
 S1[B6,B12]: delta[B6,B12,0] + delta[B6,B12,1] + delta[B12,B6,0]
   + delta[B12,B6,1] = 1
 S1[B6,B13]: delta[B6,B13,0] + delta[B6,B13,1] + delta[B13,B6,0]
   + delta[B13,B6,1] = 1
 S1[B6,B14]: delta[B6,B14,0] + delta[B6,B14,1] + delta[B14,B6,0]
   + delta[B14,B6,1] = 1
 S1[B6,B15]: delta[B6,B15,0] + delta[B6,B15,1] + delta[B15,B6,0]
   + delta[B15,B6,1] = 1
 S1[B6,B16]: delta[B6,B16,0] + delta[B6,B16,1] + delta[B16,B6,0]
   + delta[B16,B6,1] = 1
 S1[B6,B17]: delta[B6,B17,0] + delta[B6,B17,1] + delta[B17,B6,0]
   + delta[B17,B6,1] = 1
 S1[B6,B18]: delta[B6,B18,0] + delta[B6,B18,1] + delta[B18,B6,0]
   + delta[B18,B6,1] = 1
 S1[B6,B19]: delta[B6,B19,0] + delta[B6,B19,1] + delta[B19,B6,0]
   + delta[B19,B6,1] = 1
 S1[B6,B20]: delta[B6,B20,0] + delta[B6,B20,1] + delta[B20,B6,0]
   + delta[B20,B6,1] = 1
 S1[B6,B21]: delta[B6,B21,0] + delta[B6,B21,1] + delta[B21,B6,0]
   + delta[B21,B6,1] = 1
 S1[B6,B22]: delta[B6,B22,0] + delta[B6,B22,1] + delta[B22,B6,0]
   + delta[B22,B6,1] = 1
 S1[B6,B23]: delta[B6,B23,0] + delta[B6,B23,1] + delta[B23,B6,0]
   + delta[B23,B6,1] = 1
 S1[B6,B24]: delta[B6,B24,0] + delta[B6,B24,1] + delta[B24,B6,0]
   + delta[B24,B6,1] = 1
 S1[B6,B25]: delta[B6,B25,0] + delta[B6,B25,1] + delta[B25,B6,0]
   + delta[B25,B6,1] = 1
 S1[B6,B26]: delta[B6,B26,0] + delta[B6,B26,1] + delta[B26,B6,0]
   + delta[B26,B6,1] = 1
 S1[B6,B27]: delta[B6,B27,0] + delta[B6,B27,1] + delta[B27,B6,0]
   + delta[B27,B6,1] = 1
 S1[B6,B28]: delta[B6,B28,0] + delta[B6,B28,1] + delta[B28,B6,0]
   + delta[B28,B6,1] = 1
 S1[B6,B29]: delta[B6,B29,0] + delta[B6,B29,1] + delta[B29,B6,0]
   + delta[B29,B6,1] = 1
 S1[B6,B30]: delta[B6,B30,0] + delta[B6,B30,1] + delta[B30,B6,0]
   + delta[B30,B6,1] = 1
 S1[B6,B31]: delta[B6,B31,0] + delta[B6,B31,1] + delta[B31,B6,0]
   + delta[B31,B6,1] = 1
 S1[B6,B32]: delta[B6,B32,0] + delta[B6,B32,1] + delta[B32,B6,0]
   + delta[B32,B6,1] = 1
 S1[B6,B33]: delta[B6,B33,0] + delta[B6,B33,1] + delta[B33,B6,0]
   + delta[B33,B6,1] = 1
 S1[B6,B34]: delta[B6,B34,0] + delta[B6,B34,1] + delta[B34,B6,0]
   + delta[B34,B6,1] = 1
 S1[B7,B8]: delta[B7,B8,0] + delta[B7,B8,1] + delta[B8,B7,0]
   + delta[B8,B7,1] = 1
 S1[B7,B9]: delta[B7,B9,0] + delta[B7,B9,1] + delta[B9,B7,0]
   + delta[B9,B7,1] = 1
 S1[B7,B10]: delta[B7,B10,0] + delta[B7,B10,1] + delta[B10,B7,0]
   + delta[B10,B7,1] = 1
 S1[B7,B11]: delta[B7,B11,0] + delta[B7,B11,1] + delta[B11,B7,0]
   + delta[B11,B7,1] = 1
 S1[B7,B12]: delta[B7,B12,0] + delta[B7,B12,1] + delta[B12,B7,0]
   + delta[B12,B7,1] = 1
 S1[B7,B13]: delta[B7,B13,0] + delta[B7,B13,1] + delta[B13,B7,0]
   + delta[B13,B7,1] = 1
 S1[B7,B14]: delta[B7,B14,0] + delta[B7,B14,1] + delta[B14,B7,0]
   + delta[B14,B7,1] = 1
 S1[B7,B15]: delta[B7,B15,0] + delta[B7,B15,1] + delta[B15,B7,0]
   + delta[B15,B7,1] = 1
 S1[B7,B16]: delta[B7,B16,0] + delta[B7,B16,1] + delta[B16,B7,0]
   + delta[B16,B7,1] = 1
 S1[B7,B17]: delta[B7,B17,0] + delta[B7,B17,1] + delta[B17,B7,0]
   + delta[B17,B7,1] = 1
 S1[B7,B18]: delta[B7,B18,0] + delta[B7,B18,1] + delta[B18,B7,0]
   + delta[B18,B7,1] = 1
 S1[B7,B19]: delta[B7,B19,0] + delta[B7,B19,1] + delta[B19,B7,0]
   + delta[B19,B7,1] = 1
 S1[B7,B20]: delta[B7,B20,0] + delta[B7,B20,1] + delta[B20,B7,0]
   + delta[B20,B7,1] = 1
 S1[B7,B21]: delta[B7,B21,0] + delta[B7,B21,1] + delta[B21,B7,0]
   + delta[B21,B7,1] = 1
 S1[B7,B22]: delta[B7,B22,0] + delta[B7,B22,1] + delta[B22,B7,0]
   + delta[B22,B7,1] = 1
 S1[B7,B23]: delta[B7,B23,0] + delta[B7,B23,1] + delta[B23,B7,0]
   + delta[B23,B7,1] = 1
 S1[B7,B24]: delta[B7,B24,0] + delta[B7,B24,1] + delta[B24,B7,0]
   + delta[B24,B7,1] = 1
 S1[B7,B25]: delta[B7,B25,0] + delta[B7,B25,1] + delta[B25,B7,0]
   + delta[B25,B7,1] = 1
 S1[B7,B26]: delta[B7,B26,0] + delta[B7,B26,1] + delta[B26,B7,0]
   + delta[B26,B7,1] = 1
 S1[B7,B27]: delta[B7,B27,0] + delta[B7,B27,1] + delta[B27,B7,0]
   + delta[B27,B7,1] = 1
 S1[B7,B28]: delta[B7,B28,0] + delta[B7,B28,1] + delta[B28,B7,0]
   + delta[B28,B7,1] = 1
 S1[B7,B29]: delta[B7,B29,0] + delta[B7,B29,1] + delta[B29,B7,0]
   + delta[B29,B7,1] = 1
 S1[B7,B30]: delta[B7,B30,0] + delta[B7,B30,1] + delta[B30,B7,0]
   + delta[B30,B7,1] = 1
 S1[B7,B31]: delta[B7,B31,0] + delta[B7,B31,1] + delta[B31,B7,0]
   + delta[B31,B7,1] = 1
 S1[B7,B32]: delta[B7,B32,0] + delta[B7,B32,1] + delta[B32,B7,0]
   + delta[B32,B7,1] = 1
 S1[B7,B33]: delta[B7,B33,0] + delta[B7,B33,1] + delta[B33,B7,0]
   + delta[B33,B7,1] = 1
 S1[B7,B34]: delta[B7,B34,0] + delta[B7,B34,1] + delta[B34,B7,0]
   + delta[B34,B7,1] = 1
 S1[B8,B9]: delta[B8,B9,0] + delta[B8,B9,1] + delta[B9,B8,0]
   + delta[B9,B8,1] = 1
 S1[B8,B10]: delta[B8,B10,0] + delta[B8,B10,1] + delta[B10,B8,0]
   + delta[B10,B8,1] = 1
 S1[B8,B11]: delta[B8,B11,0] + delta[B8,B11,1] + delta[B11,B8,0]
   + delta[B11,B8,1] = 1
 S1[B8,B12]: delta[B8,B12,0] + delta[B8,B12,1] + delta[B12,B8,0]
   + delta[B12,B8,1] = 1
 S1[B8,B13]: delta[B8,B13,0] + delta[B8,B13,1] + delta[B13,B8,0]
   + delta[B13,B8,1] = 1
 S1[B8,B14]: delta[B8,B14,0] + delta[B8,B14,1] + delta[B14,B8,0]
   + delta[B14,B8,1] = 1
 S1[B8,B15]: delta[B8,B15,0] + delta[B8,B15,1] + delta[B15,B8,0]
   + delta[B15,B8,1] = 1
 S1[B8,B16]: delta[B8,B16,0] + delta[B8,B16,1] + delta[B16,B8,0]
   + delta[B16,B8,1] = 1
 S1[B8,B17]: delta[B8,B17,0] + delta[B8,B17,1] + delta[B17,B8,0]
   + delta[B17,B8,1] = 1
 S1[B8,B18]: delta[B8,B18,0] + delta[B8,B18,1] + delta[B18,B8,0]
   + delta[B18,B8,1] = 1
 S1[B8,B19]: delta[B8,B19,0] + delta[B8,B19,1] + delta[B19,B8,0]
   + delta[B19,B8,1] = 1
 S1[B8,B20]: delta[B8,B20,0] + delta[B8,B20,1] + delta[B20,B8,0]
   + delta[B20,B8,1] = 1
 S1[B8,B21]: delta[B8,B21,0] + delta[B8,B21,1] + delta[B21,B8,0]
   + delta[B21,B8,1] = 1
 S1[B8,B22]: delta[B8,B22,0] + delta[B8,B22,1] + delta[B22,B8,0]
   + delta[B22,B8,1] = 1
 S1[B8,B23]: delta[B8,B23,0] + delta[B8,B23,1] + delta[B23,B8,0]
   + delta[B23,B8,1] = 1
 S1[B8,B24]: delta[B8,B24,0] + delta[B8,B24,1] + delta[B24,B8,0]
   + delta[B24,B8,1] = 1
 S1[B8,B25]: delta[B8,B25,0] + delta[B8,B25,1] + delta[B25,B8,0]
   + delta[B25,B8,1] = 1
 S1[B8,B26]: delta[B8,B26,0] + delta[B8,B26,1] + delta[B26,B8,0]
   + delta[B26,B8,1] = 1
 S1[B8,B27]: delta[B8,B27,0] + delta[B8,B27,1] + delta[B27,B8,0]
   + delta[B27,B8,1] = 1
 S1[B8,B28]: delta[B8,B28,0] + delta[B8,B28,1] + delta[B28,B8,0]
   + delta[B28,B8,1] = 1
 S1[B8,B29]: delta[B8,B29,0] + delta[B8,B29,1] + delta[B29,B8,0]
   + delta[B29,B8,1] = 1
 S1[B8,B30]: delta[B8,B30,0] + delta[B8,B30,1] + delta[B30,B8,0]
   + delta[B30,B8,1] = 1
 S1[B8,B31]: delta[B8,B31,0] + delta[B8,B31,1] + delta[B31,B8,0]
   + delta[B31,B8,1] = 1
 S1[B8,B32]: delta[B8,B32,0] + delta[B8,B32,1] + delta[B32,B8,0]
   + delta[B32,B8,1] = 1
 S1[B8,B33]: delta[B8,B33,0] + delta[B8,B33,1] + delta[B33,B8,0]
   + delta[B33,B8,1] = 1
 S1[B8,B34]: delta[B8,B34,0] + delta[B8,B34,1] + delta[B34,B8,0]
   + delta[B34,B8,1] = 1
 S1[B9,B10]: delta[B9,B10,0] + delta[B9,B10,1] + delta[B10,B9,0]
   + delta[B10,B9,1] = 1
 S1[B9,B11]: delta[B9,B11,0] + delta[B9,B11,1] + delta[B11,B9,0]
   + delta[B11,B9,1] = 1
 S1[B9,B12]: delta[B9,B12,0] + delta[B9,B12,1] + delta[B12,B9,0]
   + delta[B12,B9,1] = 1
 S1[B9,B13]: delta[B9,B13,0] + delta[B9,B13,1] + delta[B13,B9,0]
   + delta[B13,B9,1] = 1
 S1[B9,B14]: delta[B9,B14,0] + delta[B9,B14,1] + delta[B14,B9,0]
   + delta[B14,B9,1] = 1
 S1[B9,B15]: delta[B9,B15,0] + delta[B9,B15,1] + delta[B15,B9,0]
   + delta[B15,B9,1] = 1
 S1[B9,B16]: delta[B9,B16,0] + delta[B9,B16,1] + delta[B16,B9,0]
   + delta[B16,B9,1] = 1
 S1[B9,B17]: delta[B9,B17,0] + delta[B9,B17,1] + delta[B17,B9,0]
   + delta[B17,B9,1] = 1
 S1[B9,B18]: delta[B9,B18,0] + delta[B9,B18,1] + delta[B18,B9,0]
   + delta[B18,B9,1] = 1
 S1[B9,B19]: delta[B9,B19,0] + delta[B9,B19,1] + delta[B19,B9,0]
   + delta[B19,B9,1] = 1
 S1[B9,B20]: delta[B9,B20,0] + delta[B9,B20,1] + delta[B20,B9,0]
   + delta[B20,B9,1] = 1
 S1[B9,B21]: delta[B9,B21,0] + delta[B9,B21,1] + delta[B21,B9,0]
   + delta[B21,B9,1] = 1
 S1[B9,B22]: delta[B9,B22,0] + delta[B9,B22,1] + delta[B22,B9,0]
   + delta[B22,B9,1] = 1
 S1[B9,B23]: delta[B9,B23,0] + delta[B9,B23,1] + delta[B23,B9,0]
   + delta[B23,B9,1] = 1
 S1[B9,B24]: delta[B9,B24,0] + delta[B9,B24,1] + delta[B24,B9,0]
   + delta[B24,B9,1] = 1
 S1[B9,B25]: delta[B9,B25,0] + delta[B9,B25,1] + delta[B25,B9,0]
   + delta[B25,B9,1] = 1
 S1[B9,B26]: delta[B9,B26,0] + delta[B9,B26,1] + delta[B26,B9,0]
   + delta[B26,B9,1] = 1
 S1[B9,B27]: delta[B9,B27,0] + delta[B9,B27,1] + delta[B27,B9,0]
   + delta[B27,B9,1] = 1
 S1[B9,B28]: delta[B9,B28,0] + delta[B9,B28,1] + delta[B28,B9,0]
   + delta[B28,B9,1] = 1
 S1[B9,B29]: delta[B9,B29,0] + delta[B9,B29,1] + delta[B29,B9,0]
   + delta[B29,B9,1] = 1
 S1[B9,B30]: delta[B9,B30,0] + delta[B9,B30,1] + delta[B30,B9,0]
   + delta[B30,B9,1] = 1
 S1[B9,B31]: delta[B9,B31,0] + delta[B9,B31,1] + delta[B31,B9,0]
   + delta[B31,B9,1] = 1
 S1[B9,B32]: delta[B9,B32,0] + delta[B9,B32,1] + delta[B32,B9,0]
   + delta[B32,B9,1] = 1
 S1[B9,B33]: delta[B9,B33,0] + delta[B9,B33,1] + delta[B33,B9,0]
   + delta[B33,B9,1] = 1
 S1[B9,B34]: delta[B9,B34,0] + delta[B9,B34,1] + delta[B34,B9,0]
   + delta[B34,B9,1] = 1
 S1[B10,B11]: delta[B10,B11,0] + delta[B10,B11,1] + delta[B11,B10,0]
   + delta[B11,B10,1] = 1
 S1[B10,B12]: delta[B10,B12,0] + delta[B10,B12,1] + delta[B12,B10,0]
   + delta[B12,B10,1] = 1
 S1[B10,B13]: delta[B10,B13,0] + delta[B10,B13,1] + delta[B13,B10,0]
   + delta[B13,B10,1] = 1
 S1[B10,B14]: delta[B10,B14,0] + delta[B10,B14,1] + delta[B14,B10,0]
   + delta[B14,B10,1] = 1
 S1[B10,B15]: delta[B10,B15,0] + delta[B10,B15,1] + delta[B15,B10,0]
   + delta[B15,B10,1] = 1
 S1[B10,B16]: delta[B10,B16,0] + delta[B10,B16,1] + delta[B16,B10,0]
   + delta[B16,B10,1] = 1
 S1[B10,B17]: delta[B10,B17,0] + delta[B10,B17,1] + delta[B17,B10,0]
   + delta[B17,B10,1] = 1
 S1[B10,B18]: delta[B10,B18,0] + delta[B10,B18,1] + delta[B18,B10,0]
   + delta[B18,B10,1] = 1
 S1[B10,B19]: delta[B10,B19,0] + delta[B10,B19,1] + delta[B19,B10,0]
   + delta[B19,B10,1] = 1
 S1[B10,B20]: delta[B10,B20,0] + delta[B10,B20,1] + delta[B20,B10,0]
   + delta[B20,B10,1] = 1
 S1[B10,B21]: delta[B10,B21,0] + delta[B10,B21,1] + delta[B21,B10,0]
   + delta[B21,B10,1] = 1
 S1[B10,B22]: delta[B10,B22,0] + delta[B10,B22,1] + delta[B22,B10,0]
   + delta[B22,B10,1] = 1
 S1[B10,B23]: delta[B10,B23,0] + delta[B10,B23,1] + delta[B23,B10,0]
   + delta[B23,B10,1] = 1
 S1[B10,B24]: delta[B10,B24,0] + delta[B10,B24,1] + delta[B24,B10,0]
   + delta[B24,B10,1] = 1
 S1[B10,B25]: delta[B10,B25,0] + delta[B10,B25,1] + delta[B25,B10,0]
   + delta[B25,B10,1] = 1
 S1[B10,B26]: delta[B10,B26,0] + delta[B10,B26,1] + delta[B26,B10,0]
   + delta[B26,B10,1] = 1
 S1[B10,B27]: delta[B10,B27,0] + delta[B10,B27,1] + delta[B27,B10,0]
   + delta[B27,B10,1] = 1
 S1[B10,B28]: delta[B10,B28,0] + delta[B10,B28,1] + delta[B28,B10,0]
   + delta[B28,B10,1] = 1
 S1[B10,B29]: delta[B10,B29,0] + delta[B10,B29,1] + delta[B29,B10,0]
   + delta[B29,B10,1] = 1
 S1[B10,B30]: delta[B10,B30,0] + delta[B10,B30,1] + delta[B30,B10,0]
   + delta[B30,B10,1] = 1
 S1[B10,B31]: delta[B10,B31,0] + delta[B10,B31,1] + delta[B31,B10,0]
   + delta[B31,B10,1] = 1
 S1[B10,B32]: delta[B10,B32,0] + delta[B10,B32,1] + delta[B32,B10,0]
   + delta[B32,B10,1] = 1
 S1[B10,B33]: delta[B10,B33,0] + delta[B10,B33,1] + delta[B33,B10,0]
   + delta[B33,B10,1] = 1
 S1[B10,B34]: delta[B10,B34,0] + delta[B10,B34,1] + delta[B34,B10,0]
   + delta[B34,B10,1] = 1
 S1[B11,B12]: delta[B11,B12,0] + delta[B11,B12,1] + delta[B12,B11,0]
   + delta[B12,B11,1] = 1
 S1[B11,B13]: delta[B11,B13,0] + delta[B11,B13,1] + delta[B13,B11,0]
   + delta[B13,B11,1] = 1
 S1[B11,B14]: delta[B11,B14,0] + delta[B11,B14,1] + delta[B14,B11,0]
   + delta[B14,B11,1] = 1
 S1[B11,B15]: delta[B11,B15,0] + delta[B11,B15,1] + delta[B15,B11,0]
   + delta[B15,B11,1] = 1
 S1[B11,B16]: delta[B11,B16,0] + delta[B11,B16,1] + delta[B16,B11,0]
   + delta[B16,B11,1] = 1
 S1[B11,B17]: delta[B11,B17,0] + delta[B11,B17,1] + delta[B17,B11,0]
   + delta[B17,B11,1] = 1
 S1[B11,B18]: delta[B11,B18,0] + delta[B11,B18,1] + delta[B18,B11,0]
   + delta[B18,B11,1] = 1
 S1[B11,B19]: delta[B11,B19,0] + delta[B11,B19,1] + delta[B19,B11,0]
   + delta[B19,B11,1] = 1
 S1[B11,B20]: delta[B11,B20,0] + delta[B11,B20,1] + delta[B20,B11,0]
   + delta[B20,B11,1] = 1
 S1[B11,B21]: delta[B11,B21,0] + delta[B11,B21,1] + delta[B21,B11,0]
   + delta[B21,B11,1] = 1
 S1[B11,B22]: delta[B11,B22,0] + delta[B11,B22,1] + delta[B22,B11,0]
   + delta[B22,B11,1] = 1
 S1[B11,B23]: delta[B11,B23,0] + delta[B11,B23,1] + delta[B23,B11,0]
   + delta[B23,B11,1] = 1
 S1[B11,B24]: delta[B11,B24,0] + delta[B11,B24,1] + delta[B24,B11,0]
   + delta[B24,B11,1] = 1
 S1[B11,B25]: delta[B11,B25,0] + delta[B11,B25,1] + delta[B25,B11,0]
   + delta[B25,B11,1] = 1
 S1[B11,B26]: delta[B11,B26,0] + delta[B11,B26,1] + delta[B26,B11,0]
   + delta[B26,B11,1] = 1
 S1[B11,B27]: delta[B11,B27,0] + delta[B11,B27,1] + delta[B27,B11,0]
   + delta[B27,B11,1] = 1
 S1[B11,B28]: delta[B11,B28,0] + delta[B11,B28,1] + delta[B28,B11,0]
   + delta[B28,B11,1] = 1
 S1[B11,B29]: delta[B11,B29,0] + delta[B11,B29,1] + delta[B29,B11,0]
   + delta[B29,B11,1] = 1
 S1[B11,B30]: delta[B11,B30,0] + delta[B11,B30,1] + delta[B30,B11,0]
   + delta[B30,B11,1] = 1
 S1[B11,B31]: delta[B11,B31,0] + delta[B11,B31,1] + delta[B31,B11,0]
   + delta[B31,B11,1] = 1
 S1[B11,B32]: delta[B11,B32,0] + delta[B11,B32,1] + delta[B32,B11,0]
   + delta[B32,B11,1] = 1
 S1[B11,B33]: delta[B11,B33,0] + delta[B11,B33,1] + delta[B33,B11,0]
   + delta[B33,B11,1] = 1
 S1[B11,B34]: delta[B11,B34,0] + delta[B11,B34,1] + delta[B34,B11,0]
   + delta[B34,B11,1] = 1
 S1[B12,B13]: delta[B12,B13,0] + delta[B12,B13,1] + delta[B13,B12,0]
   + delta[B13,B12,1] = 1
 S1[B12,B14]: delta[B12,B14,0] + delta[B12,B14,1] + delta[B14,B12,0]
   + delta[B14,B12,1] = 1
 S1[B12,B15]: delta[B12,B15,0] + delta[B12,B15,1] + delta[B15,B12,0]
   + delta[B15,B12,1] = 1
 S1[B12,B16]: delta[B12,B16,0] + delta[B12,B16,1] + delta[B16,B12,0]
   + delta[B16,B12,1] = 1
 S1[B12,B17]: delta[B12,B17,0] + delta[B12,B17,1] + delta[B17,B12,0]
   + delta[B17,B12,1] = 1
 S1[B12,B18]: delta[B12,B18,0] + delta[B12,B18,1] + delta[B18,B12,0]
   + delta[B18,B12,1] = 1
 S1[B12,B19]: delta[B12,B19,0] + delta[B12,B19,1] + delta[B19,B12,0]
   + delta[B19,B12,1] = 1
 S1[B12,B20]: delta[B12,B20,0] + delta[B12,B20,1] + delta[B20,B12,0]
   + delta[B20,B12,1] = 1
 S1[B12,B21]: delta[B12,B21,0] + delta[B12,B21,1] + delta[B21,B12,0]
   + delta[B21,B12,1] = 1
 S1[B12,B22]: delta[B12,B22,0] + delta[B12,B22,1] + delta[B22,B12,0]
   + delta[B22,B12,1] = 1
 S1[B12,B23]: delta[B12,B23,0] + delta[B12,B23,1] + delta[B23,B12,0]
   + delta[B23,B12,1] = 1
 S1[B12,B24]: delta[B12,B24,0] + delta[B12,B24,1] + delta[B24,B12,0]
   + delta[B24,B12,1] = 1
 S1[B12,B25]: delta[B12,B25,0] + delta[B12,B25,1] + delta[B25,B12,0]
   + delta[B25,B12,1] = 1
 S1[B12,B26]: delta[B12,B26,0] + delta[B12,B26,1] + delta[B26,B12,0]
   + delta[B26,B12,1] = 1
 S1[B12,B27]: delta[B12,B27,0] + delta[B12,B27,1] + delta[B27,B12,0]
   + delta[B27,B12,1] = 1
 S1[B12,B28]: delta[B12,B28,0] + delta[B12,B28,1] + delta[B28,B12,0]
   + delta[B28,B12,1] = 1
 S1[B12,B29]: delta[B12,B29,0] + delta[B12,B29,1] + delta[B29,B12,0]
   + delta[B29,B12,1] = 1
 S1[B12,B30]: delta[B12,B30,0] + delta[B12,B30,1] + delta[B30,B12,0]
   + delta[B30,B12,1] = 1
 S1[B12,B31]: delta[B12,B31,0] + delta[B12,B31,1] + delta[B31,B12,0]
   + delta[B31,B12,1] = 1
 S1[B12,B32]: delta[B12,B32,0] + delta[B12,B32,1] + delta[B32,B12,0]
   + delta[B32,B12,1] = 1
 S1[B12,B33]: delta[B12,B33,0] + delta[B12,B33,1] + delta[B33,B12,0]
   + delta[B33,B12,1] = 1
 S1[B12,B34]: delta[B12,B34,0] + delta[B12,B34,1] + delta[B34,B12,0]
   + delta[B34,B12,1] = 1
 S1[B13,B14]: delta[B13,B14,0] + delta[B13,B14,1] + delta[B14,B13,0]
   + delta[B14,B13,1] = 1
 S1[B13,B15]: delta[B13,B15,0] + delta[B13,B15,1] + delta[B15,B13,0]
   + delta[B15,B13,1] = 1
 S1[B13,B16]: delta[B13,B16,0] + delta[B13,B16,1] + delta[B16,B13,0]
   + delta[B16,B13,1] = 1
 S1[B13,B17]: delta[B13,B17,0] + delta[B13,B17,1] + delta[B17,B13,0]
   + delta[B17,B13,1] = 1
 S1[B13,B18]: delta[B13,B18,0] + delta[B13,B18,1] + delta[B18,B13,0]
   + delta[B18,B13,1] = 1
 S1[B13,B19]: delta[B13,B19,0] + delta[B13,B19,1] + delta[B19,B13,0]
   + delta[B19,B13,1] = 1
 S1[B13,B20]: delta[B13,B20,0] + delta[B13,B20,1] + delta[B20,B13,0]
   + delta[B20,B13,1] = 1
 S1[B13,B21]: delta[B13,B21,0] + delta[B13,B21,1] + delta[B21,B13,0]
   + delta[B21,B13,1] = 1
 S1[B13,B22]: delta[B13,B22,0] + delta[B13,B22,1] + delta[B22,B13,0]
   + delta[B22,B13,1] = 1
 S1[B13,B23]: delta[B13,B23,0] + delta[B13,B23,1] + delta[B23,B13,0]
   + delta[B23,B13,1] = 1
 S1[B13,B24]: delta[B13,B24,0] + delta[B13,B24,1] + delta[B24,B13,0]
   + delta[B24,B13,1] = 1
 S1[B13,B25]: delta[B13,B25,0] + delta[B13,B25,1] + delta[B25,B13,0]
   + delta[B25,B13,1] = 1
 S1[B13,B26]: delta[B13,B26,0] + delta[B13,B26,1] + delta[B26,B13,0]
   + delta[B26,B13,1] = 1
 S1[B13,B27]: delta[B13,B27,0] + delta[B13,B27,1] + delta[B27,B13,0]
   + delta[B27,B13,1] = 1
 S1[B13,B28]: delta[B13,B28,0] + delta[B13,B28,1] + delta[B28,B13,0]
   + delta[B28,B13,1] = 1
 S1[B13,B29]: delta[B13,B29,0] + delta[B13,B29,1] + delta[B29,B13,0]
   + delta[B29,B13,1] = 1
 S1[B13,B30]: delta[B13,B30,0] + delta[B13,B30,1] + delta[B30,B13,0]
   + delta[B30,B13,1] = 1
 S1[B13,B31]: delta[B13,B31,0] + delta[B13,B31,1] + delta[B31,B13,0]
   + delta[B31,B13,1] = 1
 S1[B13,B32]: delta[B13,B32,0] + delta[B13,B32,1] + delta[B32,B13,0]
   + delta[B32,B13,1] = 1
 S1[B13,B33]: delta[B13,B33,0] + delta[B13,B33,1] + delta[B33,B13,0]
   + delta[B33,B13,1] = 1
 S1[B13,B34]: delta[B13,B34,0] + delta[B13,B34,1] + delta[B34,B13,0]
   + delta[B34,B13,1] = 1
 S1[B14,B15]: delta[B14,B15,0] + delta[B14,B15,1] + delta[B15,B14,0]
   + delta[B15,B14,1] = 1
 S1[B14,B16]: delta[B14,B16,0] + delta[B14,B16,1] + delta[B16,B14,0]
   + delta[B16,B14,1] = 1
 S1[B14,B17]: delta[B14,B17,0] + delta[B14,B17,1] + delta[B17,B14,0]
   + delta[B17,B14,1] = 1
 S1[B14,B18]: delta[B14,B18,0] + delta[B14,B18,1] + delta[B18,B14,0]
   + delta[B18,B14,1] = 1
 S1[B14,B19]: delta[B14,B19,0] + delta[B14,B19,1] + delta[B19,B14,0]
   + delta[B19,B14,1] = 1
 S1[B14,B20]: delta[B14,B20,0] + delta[B14,B20,1] + delta[B20,B14,0]
   + delta[B20,B14,1] = 1
 S1[B14,B21]: delta[B14,B21,0] + delta[B14,B21,1] + delta[B21,B14,0]
   + delta[B21,B14,1] = 1
 S1[B14,B22]: delta[B14,B22,0] + delta[B14,B22,1] + delta[B22,B14,0]
   + delta[B22,B14,1] = 1
 S1[B14,B23]: delta[B14,B23,0] + delta[B14,B23,1] + delta[B23,B14,0]
   + delta[B23,B14,1] = 1
 S1[B14,B24]: delta[B14,B24,0] + delta[B14,B24,1] + delta[B24,B14,0]
   + delta[B24,B14,1] = 1
 S1[B14,B25]: delta[B14,B25,0] + delta[B14,B25,1] + delta[B25,B14,0]
   + delta[B25,B14,1] = 1
 S1[B14,B26]: delta[B14,B26,0] + delta[B14,B26,1] + delta[B26,B14,0]
   + delta[B26,B14,1] = 1
 S1[B14,B27]: delta[B14,B27,0] + delta[B14,B27,1] + delta[B27,B14,0]
   + delta[B27,B14,1] = 1
 S1[B14,B28]: delta[B14,B28,0] + delta[B14,B28,1] + delta[B28,B14,0]
   + delta[B28,B14,1] = 1
 S1[B14,B29]: delta[B14,B29,0] + delta[B14,B29,1] + delta[B29,B14,0]
   + delta[B29,B14,1] = 1
 S1[B14,B30]: delta[B14,B30,0] + delta[B14,B30,1] + delta[B30,B14,0]
   + delta[B30,B14,1] = 1
 S1[B14,B31]: delta[B14,B31,0] + delta[B14,B31,1] + delta[B31,B14,0]
   + delta[B31,B14,1] = 1
 S1[B14,B32]: delta[B14,B32,0] + delta[B14,B32,1] + delta[B32,B14,0]
   + delta[B32,B14,1] = 1
 S1[B14,B33]: delta[B14,B33,0] + delta[B14,B33,1] + delta[B33,B14,0]
   + delta[B33,B14,1] = 1
 S1[B14,B34]: delta[B14,B34,0] + delta[B14,B34,1] + delta[B34,B14,0]
   + delta[B34,B14,1] = 1
 S1[B15,B16]: delta[B15,B16,0] + delta[B15,B16,1] + delta[B16,B15,0]
   + delta[B16,B15,1] = 1
 S1[B15,B17]: delta[B15,B17,0] + delta[B15,B17,1] + delta[B17,B15,0]
   + delta[B17,B15,1] = 1
 S1[B15,B18]: delta[B15,B18,0] + delta[B15,B18,1] + delta[B18,B15,0]
   + delta[B18,B15,1] = 1
 S1[B15,B19]: delta[B15,B19,0] + delta[B15,B19,1] + delta[B19,B15,0]
   + delta[B19,B15,1] = 1
 S1[B15,B20]: delta[B15,B20,0] + delta[B15,B20,1] + delta[B20,B15,0]
   + delta[B20,B15,1] = 1
 S1[B15,B21]: delta[B15,B21,0] + delta[B15,B21,1] + delta[B21,B15,0]
   + delta[B21,B15,1] = 1
 S1[B15,B22]: delta[B15,B22,0] + delta[B15,B22,1] + delta[B22,B15,0]
   + delta[B22,B15,1] = 1
 S1[B15,B23]: delta[B15,B23,0] + delta[B15,B23,1] + delta[B23,B15,0]
   + delta[B23,B15,1] = 1
 S1[B15,B24]: delta[B15,B24,0] + delta[B15,B24,1] + delta[B24,B15,0]
   + delta[B24,B15,1] = 1
 S1[B15,B25]: delta[B15,B25,0] + delta[B15,B25,1] + delta[B25,B15,0]
   + delta[B25,B15,1] = 1
 S1[B15,B26]: delta[B15,B26,0] + delta[B15,B26,1] + delta[B26,B15,0]
   + delta[B26,B15,1] = 1
 S1[B15,B27]: delta[B15,B27,0] + delta[B15,B27,1] + delta[B27,B15,0]
   + delta[B27,B15,1] = 1
 S1[B15,B28]: delta[B15,B28,0] + delta[B15,B28,1] + delta[B28,B15,0]
   + delta[B28,B15,1] = 1
 S1[B15,B29]: delta[B15,B29,0] + delta[B15,B29,1] + delta[B29,B15,0]
   + delta[B29,B15,1] = 1
 S1[B15,B30]: delta[B15,B30,0] + delta[B15,B30,1] + delta[B30,B15,0]
   + delta[B30,B15,1] = 1
 S1[B15,B31]: delta[B15,B31,0] + delta[B15,B31,1] + delta[B31,B15,0]
   + delta[B31,B15,1] = 1
 S1[B15,B32]: delta[B15,B32,0] + delta[B15,B32,1] + delta[B32,B15,0]
   + delta[B32,B15,1] = 1
 S1[B15,B33]: delta[B15,B33,0] + delta[B15,B33,1] + delta[B33,B15,0]
   + delta[B33,B15,1] = 1
 S1[B15,B34]: delta[B15,B34,0] + delta[B15,B34,1] + delta[B34,B15,0]
   + delta[B34,B15,1] = 1
 S1[B16,B17]: delta[B16,B17,0] + delta[B16,B17,1] + delta[B17,B16,0]
   + delta[B17,B16,1] = 1
 S1[B16,B18]: delta[B16,B18,0] + delta[B16,B18,1] + delta[B18,B16,0]
   + delta[B18,B16,1] = 1
 S1[B16,B19]: delta[B16,B19,0] + delta[B16,B19,1] + delta[B19,B16,0]
   + delta[B19,B16,1] = 1
 S1[B16,B20]: delta[B16,B20,0] + delta[B16,B20,1] + delta[B20,B16,0]
   + delta[B20,B16,1] = 1
 S1[B16,B21]: delta[B16,B21,0] + delta[B16,B21,1] + delta[B21,B16,0]
   + delta[B21,B16,1] = 1
 S1[B16,B22]: delta[B16,B22,0] + delta[B16,B22,1] + delta[B22,B16,0]
   + delta[B22,B16,1] = 1
 S1[B16,B23]: delta[B16,B23,0] + delta[B16,B23,1] + delta[B23,B16,0]
   + delta[B23,B16,1] = 1
 S1[B16,B24]: delta[B16,B24,0] + delta[B16,B24,1] + delta[B24,B16,0]
   + delta[B24,B16,1] = 1
 S1[B16,B25]: delta[B16,B25,0] + delta[B16,B25,1] + delta[B25,B16,0]
   + delta[B25,B16,1] = 1
 S1[B16,B26]: delta[B16,B26,0] + delta[B16,B26,1] + delta[B26,B16,0]
   + delta[B26,B16,1] = 1
 S1[B16,B27]: delta[B16,B27,0] + delta[B16,B27,1] + delta[B27,B16,0]
   + delta[B27,B16,1] = 1
 S1[B16,B28]: delta[B16,B28,0] + delta[B16,B28,1] + delta[B28,B16,0]
   + delta[B28,B16,1] = 1
 S1[B16,B29]: delta[B16,B29,0] + delta[B16,B29,1] + delta[B29,B16,0]
   + delta[B29,B16,1] = 1
 S1[B16,B30]: delta[B16,B30,0] + delta[B16,B30,1] + delta[B30,B16,0]
   + delta[B30,B16,1] = 1
 S1[B16,B31]: delta[B16,B31,0] + delta[B16,B31,1] + delta[B31,B16,0]
   + delta[B31,B16,1] = 1
 S1[B16,B32]: delta[B16,B32,0] + delta[B16,B32,1] + delta[B32,B16,0]
   + delta[B32,B16,1] = 1
 S1[B16,B33]: delta[B16,B33,0] + delta[B16,B33,1] + delta[B33,B16,0]
   + delta[B33,B16,1] = 1
 S1[B16,B34]: delta[B16,B34,0] + delta[B16,B34,1] + delta[B34,B16,0]
   + delta[B34,B16,1] = 1
 S1[B17,B18]: delta[B17,B18,0] + delta[B17,B18,1] + delta[B18,B17,0]
   + delta[B18,B17,1] = 1
 S1[B17,B19]: delta[B17,B19,0] + delta[B17,B19,1] + delta[B19,B17,0]
   + delta[B19,B17,1] = 1
 S1[B17,B20]: delta[B17,B20,0] + delta[B17,B20,1] + delta[B20,B17,0]
   + delta[B20,B17,1] = 1
 S1[B17,B21]: delta[B17,B21,0] + delta[B17,B21,1] + delta[B21,B17,0]
   + delta[B21,B17,1] = 1
 S1[B17,B22]: delta[B17,B22,0] + delta[B17,B22,1] + delta[B22,B17,0]
   + delta[B22,B17,1] = 1
 S1[B17,B23]: delta[B17,B23,0] + delta[B17,B23,1] + delta[B23,B17,0]
   + delta[B23,B17,1] = 1
 S1[B17,B24]: delta[B17,B24,0] + delta[B17,B24,1] + delta[B24,B17,0]
   + delta[B24,B17,1] = 1
 S1[B17,B25]: delta[B17,B25,0] + delta[B17,B25,1] + delta[B25,B17,0]
   + delta[B25,B17,1] = 1
 S1[B17,B26]: delta[B17,B26,0] + delta[B17,B26,1] + delta[B26,B17,0]
   + delta[B26,B17,1] = 1
 S1[B17,B27]: delta[B17,B27,0] + delta[B17,B27,1] + delta[B27,B17,0]
   + delta[B27,B17,1] = 1
 S1[B17,B28]: delta[B17,B28,0] + delta[B17,B28,1] + delta[B28,B17,0]
   + delta[B28,B17,1] = 1
 S1[B17,B29]: delta[B17,B29,0] + delta[B17,B29,1] + delta[B29,B17,0]
   + delta[B29,B17,1] = 1
 S1[B17,B30]: delta[B17,B30,0] + delta[B17,B30,1] + delta[B30,B17,0]
   + delta[B30,B17,1] = 1
 S1[B17,B31]: delta[B17,B31,0] + delta[B17,B31,1] + delta[B31,B17,0]
   + delta[B31,B17,1] = 1
 S1[B17,B32]: delta[B17,B32,0] + delta[B17,B32,1] + delta[B32,B17,0]
   + delta[B32,B17,1] = 1
 S1[B17,B33]: delta[B17,B33,0] + delta[B17,B33,1] + delta[B33,B17,0]
   + delta[B33,B17,1] = 1
 S1[B17,B34]: delta[B17,B34,0] + delta[B17,B34,1] + delta[B34,B17,0]
   + delta[B34,B17,1] = 1
 S1[B18,B19]: delta[B18,B19,0] + delta[B18,B19,1] + delta[B19,B18,0]
   + delta[B19,B18,1] = 1
 S1[B18,B20]: delta[B18,B20,0] + delta[B18,B20,1] + delta[B20,B18,0]
   + delta[B20,B18,1] = 1
 S1[B18,B21]: delta[B18,B21,0] + delta[B18,B21,1] + delta[B21,B18,0]
   + delta[B21,B18,1] = 1
 S1[B18,B22]: delta[B18,B22,0] + delta[B18,B22,1] + delta[B22,B18,0]
   + delta[B22,B18,1] = 1
 S1[B18,B23]: delta[B18,B23,0] + delta[B18,B23,1] + delta[B23,B18,0]
   + delta[B23,B18,1] = 1
 S1[B18,B24]: delta[B18,B24,0] + delta[B18,B24,1] + delta[B24,B18,0]
   + delta[B24,B18,1] = 1
 S1[B18,B25]: delta[B18,B25,0] + delta[B18,B25,1] + delta[B25,B18,0]
   + delta[B25,B18,1] = 1
 S1[B18,B26]: delta[B18,B26,0] + delta[B18,B26,1] + delta[B26,B18,0]
   + delta[B26,B18,1] = 1
 S1[B18,B27]: delta[B18,B27,0] + delta[B18,B27,1] + delta[B27,B18,0]
   + delta[B27,B18,1] = 1
 S1[B18,B28]: delta[B18,B28,0] + delta[B18,B28,1] + delta[B28,B18,0]
   + delta[B28,B18,1] = 1
 S1[B18,B29]: delta[B18,B29,0] + delta[B18,B29,1] + delta[B29,B18,0]
   + delta[B29,B18,1] = 1
 S1[B18,B30]: delta[B18,B30,0] + delta[B18,B30,1] + delta[B30,B18,0]
   + delta[B30,B18,1] = 1
 S1[B18,B31]: delta[B18,B31,0] + delta[B18,B31,1] + delta[B31,B18,0]
   + delta[B31,B18,1] = 1
 S1[B18,B32]: delta[B18,B32,0] + delta[B18,B32,1] + delta[B32,B18,0]
   + delta[B32,B18,1] = 1
 S1[B18,B33]: delta[B18,B33,0] + delta[B18,B33,1] + delta[B33,B18,0]
   + delta[B33,B18,1] = 1
 S1[B18,B34]: delta[B18,B34,0] + delta[B18,B34,1] + delta[B34,B18,0]
   + delta[B34,B18,1] = 1
 S1[B19,B20]: delta[B19,B20,0] + delta[B19,B20,1] + delta[B20,B19,0]
   + delta[B20,B19,1] = 1
 S1[B19,B21]: delta[B19,B21,0] + delta[B19,B21,1] + delta[B21,B19,0]
   + delta[B21,B19,1] = 1
 S1[B19,B22]: delta[B19,B22,0] + delta[B19,B22,1] + delta[B22,B19,0]
   + delta[B22,B19,1] = 1
 S1[B19,B23]: delta[B19,B23,0] + delta[B19,B23,1] + delta[B23,B19,0]
   + delta[B23,B19,1] = 1
 S1[B19,B24]: delta[B19,B24,0] + delta[B19,B24,1] + delta[B24,B19,0]
   + delta[B24,B19,1] = 1
 S1[B19,B25]: delta[B19,B25,0] + delta[B19,B25,1] + delta[B25,B19,0]
   + delta[B25,B19,1] = 1
 S1[B19,B26]: delta[B19,B26,0] + delta[B19,B26,1] + delta[B26,B19,0]
   + delta[B26,B19,1] = 1
 S1[B19,B27]: delta[B19,B27,0] + delta[B19,B27,1] + delta[B27,B19,0]
   + delta[B27,B19,1] = 1
 S1[B19,B28]: delta[B19,B28,0] + delta[B19,B28,1] + delta[B28,B19,0]
   + delta[B28,B19,1] = 1
 S1[B19,B29]: delta[B19,B29,0] + delta[B19,B29,1] + delta[B29,B19,0]
   + delta[B29,B19,1] = 1
 S1[B19,B30]: delta[B19,B30,0] + delta[B19,B30,1] + delta[B30,B19,0]
   + delta[B30,B19,1] = 1
 S1[B19,B31]: delta[B19,B31,0] + delta[B19,B31,1] + delta[B31,B19,0]
   + delta[B31,B19,1] = 1
 S1[B19,B32]: delta[B19,B32,0] + delta[B19,B32,1] + delta[B32,B19,0]
   + delta[B32,B19,1] = 1
 S1[B19,B33]: delta[B19,B33,0] + delta[B19,B33,1] + delta[B33,B19,0]
   + delta[B33,B19,1] = 1
 S1[B19,B34]: delta[B19,B34,0] + delta[B19,B34,1] + delta[B34,B19,0]
   + delta[B34,B19,1] = 1
 S1[B20,B21]: delta[B20,B21,0] + delta[B20,B21,1] + delta[B21,B20,0]
   + delta[B21,B20,1] = 1
 S1[B20,B22]: delta[B20,B22,0] + delta[B20,B22,1] + delta[B22,B20,0]
   + delta[B22,B20,1] = 1
 S1[B20,B23]: delta[B20,B23,0] + delta[B20,B23,1] + delta[B23,B20,0]
   + delta[B23,B20,1] = 1
 S1[B20,B24]: delta[B20,B24,0] + delta[B20,B24,1] + delta[B24,B20,0]
   + delta[B24,B20,1] = 1
 S1[B20,B25]: delta[B20,B25,0] + delta[B20,B25,1] + delta[B25,B20,0]
   + delta[B25,B20,1] = 1
 S1[B20,B26]: delta[B20,B26,0] + delta[B20,B26,1] + delta[B26,B20,0]
   + delta[B26,B20,1] = 1
 S1[B20,B27]: delta[B20,B27,0] + delta[B20,B27,1] + delta[B27,B20,0]
   + delta[B27,B20,1] = 1
 S1[B20,B28]: delta[B20,B28,0] + delta[B20,B28,1] + delta[B28,B20,0]
   + delta[B28,B20,1] = 1
 S1[B20,B29]: delta[B20,B29,0] + delta[B20,B29,1] + delta[B29,B20,0]
   + delta[B29,B20,1] = 1
 S1[B20,B30]: delta[B20,B30,0] + delta[B20,B30,1] + delta[B30,B20,0]
   + delta[B30,B20,1] = 1
 S1[B20,B31]: delta[B20,B31,0] + delta[B20,B31,1] + delta[B31,B20,0]
   + delta[B31,B20,1] = 1
 S1[B20,B32]: delta[B20,B32,0] + delta[B20,B32,1] + delta[B32,B20,0]
   + delta[B32,B20,1] = 1
 S1[B20,B33]: delta[B20,B33,0] + delta[B20,B33,1] + delta[B33,B20,0]
   + delta[B33,B20,1] = 1
 S1[B20,B34]: delta[B20,B34,0] + delta[B20,B34,1] + delta[B34,B20,0]
   + delta[B34,B20,1] = 1
 S1[B21,B22]: delta[B21,B22,0] + delta[B21,B22,1] + delta[B22,B21,0]
   + delta[B22,B21,1] = 1
 S1[B21,B23]: delta[B21,B23,0] + delta[B21,B23,1] + delta[B23,B21,0]
   + delta[B23,B21,1] = 1
 S1[B21,B24]: delta[B21,B24,0] + delta[B21,B24,1] + delta[B24,B21,0]
   + delta[B24,B21,1] = 1
 S1[B21,B25]: delta[B21,B25,0] + delta[B21,B25,1] + delta[B25,B21,0]
   + delta[B25,B21,1] = 1
 S1[B21,B26]: delta[B21,B26,0] + delta[B21,B26,1] + delta[B26,B21,0]
   + delta[B26,B21,1] = 1
 S1[B21,B27]: delta[B21,B27,0] + delta[B21,B27,1] + delta[B27,B21,0]
   + delta[B27,B21,1] = 1
 S1[B21,B28]: delta[B21,B28,0] + delta[B21,B28,1] + delta[B28,B21,0]
   + delta[B28,B21,1] = 1
 S1[B21,B29]: delta[B21,B29,0] + delta[B21,B29,1] + delta[B29,B21,0]
   + delta[B29,B21,1] = 1
 S1[B21,B30]: delta[B21,B30,0] + delta[B21,B30,1] + delta[B30,B21,0]
   + delta[B30,B21,1] = 1
 S1[B21,B31]: delta[B21,B31,0] + delta[B21,B31,1] + delta[B31,B21,0]
   + delta[B31,B21,1] = 1
 S1[B21,B32]: delta[B21,B32,0] + delta[B21,B32,1] + delta[B32,B21,0]
   + delta[B32,B21,1] = 1
 S1[B21,B33]: delta[B21,B33,0] + delta[B21,B33,1] + delta[B33,B21,0]
   + delta[B33,B21,1] = 1
 S1[B21,B34]: delta[B21,B34,0] + delta[B21,B34,1] + delta[B34,B21,0]
   + delta[B34,B21,1] = 1
 S1[B22,B23]: delta[B22,B23,0] + delta[B22,B23,1] + delta[B23,B22,0]
   + delta[B23,B22,1] = 1
 S1[B22,B24]: delta[B22,B24,0] + delta[B22,B24,1] + delta[B24,B22,0]
   + delta[B24,B22,1] = 1
 S1[B22,B25]: delta[B22,B25,0] + delta[B22,B25,1] + delta[B25,B22,0]
   + delta[B25,B22,1] = 1
 S1[B22,B26]: delta[B22,B26,0] + delta[B22,B26,1] + delta[B26,B22,0]
   + delta[B26,B22,1] = 1
 S1[B22,B27]: delta[B22,B27,0] + delta[B22,B27,1] + delta[B27,B22,0]
   + delta[B27,B22,1] = 1
 S1[B22,B28]: delta[B22,B28,0] + delta[B22,B28,1] + delta[B28,B22,0]
   + delta[B28,B22,1] = 1
 S1[B22,B29]: delta[B22,B29,0] + delta[B22,B29,1] + delta[B29,B22,0]
   + delta[B29,B22,1] = 1
 S1[B22,B30]: delta[B22,B30,0] + delta[B22,B30,1] + delta[B30,B22,0]
   + delta[B30,B22,1] = 1
 S1[B22,B31]: delta[B22,B31,0] + delta[B22,B31,1] + delta[B31,B22,0]
   + delta[B31,B22,1] = 1
 S1[B22,B32]: delta[B22,B32,0] + delta[B22,B32,1] + delta[B32,B22,0]
   + delta[B32,B22,1] = 1
 S1[B22,B33]: delta[B22,B33,0] + delta[B22,B33,1] + delta[B33,B22,0]
   + delta[B33,B22,1] = 1
 S1[B22,B34]: delta[B22,B34,0] + delta[B22,B34,1] + delta[B34,B22,0]
   + delta[B34,B22,1] = 1
 S1[B23,B24]: delta[B23,B24,0] + delta[B23,B24,1] + delta[B24,B23,0]
   + delta[B24,B23,1] = 1
 S1[B23,B25]: delta[B23,B25,0] + delta[B23,B25,1] + delta[B25,B23,0]
   + delta[B25,B23,1] = 1
 S1[B23,B26]: delta[B23,B26,0] + delta[B23,B26,1] + delta[B26,B23,0]
   + delta[B26,B23,1] = 1
 S1[B23,B27]: delta[B23,B27,0] + delta[B23,B27,1] + delta[B27,B23,0]
   + delta[B27,B23,1] = 1
 S1[B23,B28]: delta[B23,B28,0] + delta[B23,B28,1] + delta[B28,B23,0]
   + delta[B28,B23,1] = 1
 S1[B23,B29]: delta[B23,B29,0] + delta[B23,B29,1] + delta[B29,B23,0]
   + delta[B29,B23,1] = 1
 S1[B23,B30]: delta[B23,B30,0] + delta[B23,B30,1] + delta[B30,B23,0]
   + delta[B30,B23,1] = 1
 S1[B23,B31]: delta[B23,B31,0] + delta[B23,B31,1] + delta[B31,B23,0]
   + delta[B31,B23,1] = 1
 S1[B23,B32]: delta[B23,B32,0] + delta[B23,B32,1] + delta[B32,B23,0]
   + delta[B32,B23,1] = 1
 S1[B23,B33]: delta[B23,B33,0] + delta[B23,B33,1] + delta[B33,B23,0]
   + delta[B33,B23,1] = 1
 S1[B23,B34]: delta[B23,B34,0] + delta[B23,B34,1] + delta[B34,B23,0]
   + delta[B34,B23,1] = 1
 S1[B24,B25]: delta[B24,B25,0] + delta[B24,B25,1] + delta[B25,B24,0]
   + delta[B25,B24,1] = 1
 S1[B24,B26]: delta[B24,B26,0] + delta[B24,B26,1] + delta[B26,B24,0]
   + delta[B26,B24,1] = 1
 S1[B24,B27]: delta[B24,B27,0] + delta[B24,B27,1] + delta[B27,B24,0]
   + delta[B27,B24,1] = 1
 S1[B24,B28]: delta[B24,B28,0] + delta[B24,B28,1] + delta[B28,B24,0]
   + delta[B28,B24,1] = 1
 S1[B24,B29]: delta[B24,B29,0] + delta[B24,B29,1] + delta[B29,B24,0]
   + delta[B29,B24,1] = 1
 S1[B24,B30]: delta[B24,B30,0] + delta[B24,B30,1] + delta[B30,B24,0]
   + delta[B30,B24,1] = 1
 S1[B24,B31]: delta[B24,B31,0] + delta[B24,B31,1] + delta[B31,B24,0]
   + delta[B31,B24,1] = 1
 S1[B24,B32]: delta[B24,B32,0] + delta[B24,B32,1] + delta[B32,B24,0]
   + delta[B32,B24,1] = 1
 S1[B24,B33]: delta[B24,B33,0] + delta[B24,B33,1] + delta[B33,B24,0]
   + delta[B33,B24,1] = 1
 S1[B24,B34]: delta[B24,B34,0] + delta[B24,B34,1] + delta[B34,B24,0]
   + delta[B34,B24,1] = 1
 S1[B25,B26]: delta[B25,B26,0] + delta[B25,B26,1] + delta[B26,B25,0]
   + delta[B26,B25,1] = 1
 S1[B25,B27]: delta[B25,B27,0] + delta[B25,B27,1] + delta[B27,B25,0]
   + delta[B27,B25,1] = 1
 S1[B25,B28]: delta[B25,B28,0] + delta[B25,B28,1] + delta[B28,B25,0]
   + delta[B28,B25,1] = 1
 S1[B25,B29]: delta[B25,B29,0] + delta[B25,B29,1] + delta[B29,B25,0]
   + delta[B29,B25,1] = 1
 S1[B25,B30]: delta[B25,B30,0] + delta[B25,B30,1] + delta[B30,B25,0]
   + delta[B30,B25,1] = 1
 S1[B25,B31]: delta[B25,B31,0] + delta[B25,B31,1] + delta[B31,B25,0]
   + delta[B31,B25,1] = 1
 S1[B25,B32]: delta[B25,B32,0] + delta[B25,B32,1] + delta[B32,B25,0]
   + delta[B32,B25,1] = 1
 S1[B25,B33]: delta[B25,B33,0] + delta[B25,B33,1] + delta[B33,B25,0]
   + delta[B33,B25,1] = 1
 S1[B25,B34]: delta[B25,B34,0] + delta[B25,B34,1] + delta[B34,B25,0]
   + delta[B34,B25,1] = 1
 S1[B26,B27]: delta[B26,B27,0] + delta[B26,B27,1] + delta[B27,B26,0]
   + delta[B27,B26,1] = 1
 S1[B26,B28]: delta[B26,B28,0] + delta[B26,B28,1] + delta[B28,B26,0]
   + delta[B28,B26,1] = 1
 S1[B26,B29]: delta[B26,B29,0] + delta[B26,B29,1] + delta[B29,B26,0]
   + delta[B29,B26,1] = 1
 S1[B26,B30]: delta[B26,B30,0] + delta[B26,B30,1] + delta[B30,B26,0]
   + delta[B30,B26,1] = 1
 S1[B26,B31]: delta[B26,B31,0] + delta[B26,B31,1] + delta[B31,B26,0]
   + delta[B31,B26,1] = 1
 S1[B26,B32]: delta[B26,B32,0] + delta[B26,B32,1] + delta[B32,B26,0]
   + delta[B32,B26,1] = 1
 S1[B26,B33]: delta[B26,B33,0] + delta[B26,B33,1] + delta[B33,B26,0]
   + delta[B33,B26,1] = 1
 S1[B26,B34]: delta[B26,B34,0] + delta[B26,B34,1] + delta[B34,B26,0]
   + delta[B34,B26,1] = 1
 S1[B27,B28]: delta[B27,B28,0] + delta[B27,B28,1] + delta[B28,B27,0]
   + delta[B28,B27,1] = 1
 S1[B27,B29]: delta[B27,B29,0] + delta[B27,B29,1] + delta[B29,B27,0]
   + delta[B29,B27,1] = 1
 S1[B27,B30]: delta[B27,B30,0] + delta[B27,B30,1] + delta[B30,B27,0]
   + delta[B30,B27,1] = 1
 S1[B27,B31]: delta[B27,B31,0] + delta[B27,B31,1] + delta[B31,B27,0]
   + delta[B31,B27,1] = 1
 S1[B27,B32]: delta[B27,B32,0] + delta[B27,B32,1] + delta[B32,B27,0]
   + delta[B32,B27,1] = 1
 S1[B27,B33]: delta[B27,B33,0] + delta[B27,B33,1] + delta[B33,B27,0]
   + delta[B33,B27,1] = 1
 S1[B27,B34]: delta[B27,B34,0] + delta[B27,B34,1] + delta[B34,B27,0]
   + delta[B34,B27,1] = 1
 S1[B28,B29]: delta[B28,B29,0] + delta[B28,B29,1] + delta[B29,B28,0]
   + delta[B29,B28,1] = 1
 S1[B28,B30]: delta[B28,B30,0] + delta[B28,B30,1] + delta[B30,B28,0]
   + delta[B30,B28,1] = 1
 S1[B28,B31]: delta[B28,B31,0] + delta[B28,B31,1] + delta[B31,B28,0]
   + delta[B31,B28,1] = 1
 S1[B28,B32]: delta[B28,B32,0] + delta[B28,B32,1] + delta[B32,B28,0]
   + delta[B32,B28,1] = 1
 S1[B28,B33]: delta[B28,B33,0] + delta[B28,B33,1] + delta[B33,B28,0]
   + delta[B33,B28,1] = 1
 S1[B28,B34]: delta[B28,B34,0] + delta[B28,B34,1] + delta[B34,B28,0]
   + delta[B34,B28,1] = 1
 S1[B29,B30]: delta[B29,B30,0] + delta[B29,B30,1] + delta[B30,B29,0]
   + delta[B30,B29,1] = 1
 S1[B29,B31]: delta[B29,B31,0] + delta[B29,B31,1] + delta[B31,B29,0]
   + delta[B31,B29,1] = 1
 S1[B29,B32]: delta[B29,B32,0] + delta[B29,B32,1] + delta[B32,B29,0]
   + delta[B32,B29,1] = 1
 S1[B29,B33]: delta[B29,B33,0] + delta[B29,B33,1] + delta[B33,B29,0]
   + delta[B33,B29,1] = 1
 S1[B29,B34]: delta[B29,B34,0] + delta[B29,B34,1] + delta[B34,B29,0]
   + delta[B34,B29,1] = 1
 S1[B30,B31]: delta[B30,B31,0] + delta[B30,B31,1] + delta[B31,B30,0]
   + delta[B31,B30,1] = 1
 S1[B30,B32]: delta[B30,B32,0] + delta[B30,B32,1] + delta[B32,B30,0]
   + delta[B32,B30,1] = 1
 S1[B30,B33]: delta[B30,B33,0] + delta[B30,B33,1] + delta[B33,B30,0]
   + delta[B33,B30,1] = 1
 S1[B30,B34]: delta[B30,B34,0] + delta[B30,B34,1] + delta[B34,B30,0]
   + delta[B34,B30,1] = 1
 S1[B31,B32]: delta[B31,B32,0] + delta[B31,B32,1] + delta[B32,B31,0]
   + delta[B32,B31,1] = 1
 S1[B31,B33]: delta[B31,B33,0] + delta[B31,B33,1] + delta[B33,B31,0]
   + delta[B33,B31,1] = 1
 S1[B31,B34]: delta[B31,B34,0] + delta[B31,B34,1] + delta[B34,B31,0]
   + delta[B34,B31,1] = 1
 S1[B32,B33]: delta[B32,B33,0] + delta[B32,B33,1] + delta[B33,B32,0]
   + delta[B33,B32,1] = 1
 S1[B32,B34]: delta[B32,B34,0] + delta[B32,B34,1] + delta[B34,B32,0]
   + delta[B34,B32,1] = 1
 S1[B33,B34]: delta[B33,B34,0] + delta[B33,B34,1] + delta[B34,B33,0]
   + delta[B34,B33,1] = 1
Bounds
 9.5 <= c[B0,0] <= 95.5
 16.5 <= c[B0,1] <= 9994.5
 8 <= c[B1,0] <= 78
 6.5 <= c[B1,1] <= 9993.5
 3 <= c[B2,0] <= 93
 14.5 <= c[B2,1] <= 9994.5
 8 <= c[B3,0] <= 92
 9.5 <= c[B3,1] <= 9993.5
 3 <= c[B4,0] <= 97
 11.5 <= c[B4,1] <= 9987.5
 6 <= c[B5,0] <= 97
 5 <= c[B5,1] <= 9997
 13.5 <= c[B6,0] <= 92.5
 9 <= c[B6,1] <= 9989
 15.5 <= c[B7,0] <= 92.5
 10 <= c[B7,1] <= 9990
 3.5 <= c[B8,0] <= 93.5
 8 <= c[B8,1] <= 9990
 12.5 <= c[B9,0] <= 83.5
 9.5 <= c[B9,1] <= 9988.5
 5 <= c[B10,0] <= 90
 5 <= c[B10,1] <= 9989
 10.5 <= c[B11,0] <= 95.5
 14 <= c[B11,1] <= 9992
 9.5 <= c[B12,0] <= 90.5
 6 <= c[B12,1] <= 9991
 10 <= c[B13,0] <= 80
 4 <= c[B13,1] <= 9995
 7 <= c[B14,0] <= 93
 6.5 <= c[B14,1] <= 9995.5
 8 <= c[B15,0] <= 87
 6 <= c[B15,1] <= 9993
 6.5 <= c[B16,0] <= 81.5
 6 <= c[B16,1] <= 9996
 7 <= c[B17,0] <= 91
 21.5 <= c[B17,1] <= 9990.5
 26 <= c[B18,0] <= 87
 3.5 <= c[B18,1] <= 9993.5
 6.5 <= c[B19,0] <= 93.5
 5 <= c[B19,1] <= 9987
 10 <= c[B20,0] <= 83
 5 <= c[B20,1] <= 9994
 26 <= c[B21,0] <= 89
 6 <= c[B21,1] <= 9996
 11.5 <= c[B22,0] <= 95.5
 7 <= c[B22,1] <= 9993
 8 <= c[B23,0] <= 89
 8 <= c[B23,1] <= 9988
 8 <= c[B24,0] <= 95
 8.5 <= c[B24,1] <= 9991.5
 19 <= c[B25,0] <= 92
 5.5 <= c[B25,1] <= 9995.5
 6.5 <= c[B26,0] <= 96.5
 3.5 <= c[B26,1] <= 9995.5
 11 <= c[B27,0] <= 96
 12.5 <= c[B27,1] <= 9982.5
 19.5 <= c[B28,0] <= 91.5
 6.5 <= c[B28,1] <= 9996.5
 8 <= c[B29,0] <= 92
 7.5 <= c[B29,1] <= 9992.5
 5 <= c[B30,0] <= 95
 30 <= c[B30,1] <= 9982
 16 <= c[B31,0] <= 87
 9.5 <= c[B31,1] <= 9991.5
 6 <= c[B32,0] <= 94
 4.5 <= c[B32,1] <= 9995.5
 7.5 <= c[B33,0] <= 91.5
 3 <= c[B33,1] <= 9995
 2.5 <= c[B34,0] <= 97.5
 6.5 <= c[B34,1] <= 9992.5
 38 <= h <= 579
Binaries
 delta[B0,B1,0] delta[B0,B1,1] delta[B0,B2,0] delta[B0,B2,1] delta[B0,B3,0]
 delta[B0,B3,1] delta[B0,B4,0] delta[B0,B4,1] delta[B0,B5,0] delta[B0,B5,1]
 delta[B0,B6,0] delta[B0,B6,1] delta[B0,B7,0] delta[B0,B7,1] delta[B0,B8,0]
 delta[B0,B8,1] delta[B0,B9,0] delta[B0,B9,1] delta[B0,B10,0]
 delta[B0,B10,1] delta[B0,B11,0] delta[B0,B11,1] delta[B0,B12,0]
 delta[B0,B12,1] delta[B0,B13,0] delta[B0,B13,1] delta[B0,B14,0]
 delta[B0,B14,1] delta[B0,B15,0] delta[B0,B15,1] delta[B0,B16,0]
 delta[B0,B16,1] delta[B0,B17,0] delta[B0,B17,1] delta[B0,B18,0]
 delta[B0,B18,1] delta[B0,B19,0] delta[B0,B19,1] delta[B0,B20,0]
 delta[B0,B20,1] delta[B0,B21,0] delta[B0,B21,1] delta[B0,B22,0]
 delta[B0,B22,1] delta[B0,B23,0] delta[B0,B23,1] delta[B0,B24,0]
 delta[B0,B24,1] delta[B0,B25,0] delta[B0,B25,1] delta[B0,B26,0]
 delta[B0,B26,1] delta[B0,B27,0] delta[B0,B27,1] delta[B0,B28,0]
 delta[B0,B28,1] delta[B0,B29,0] delta[B0,B29,1] delta[B0,B30,0]
 delta[B0,B30,1] delta[B0,B31,0] delta[B0,B31,1] delta[B0,B32,0]
 delta[B0,B32,1] delta[B0,B33,0] delta[B0,B33,1] delta[B0,B34,0]
 delta[B0,B34,1] delta[B1,B0,0] delta[B1,B0,1] delta[B1,B2,0]
 delta[B1,B2,1] delta[B1,B3,0] delta[B1,B3,1] delta[B1,B4,0] delta[B1,B4,1]
 delta[B1,B5,0] delta[B1,B5,1] delta[B1,B6,0] delta[B1,B6,1] delta[B1,B7,0]
 delta[B1,B7,1] delta[B1,B8,0] delta[B1,B8,1] delta[B1,B9,0] delta[B1,B9,1]
 delta[B1,B10,0] delta[B1,B10,1] delta[B1,B11,0] delta[B1,B11,1]
 delta[B1,B12,0] delta[B1,B12,1] delta[B1,B13,0] delta[B1,B13,1]
 delta[B1,B14,0] delta[B1,B14,1] delta[B1,B15,0] delta[B1,B15,1]
 delta[B1,B16,0] delta[B1,B16,1] delta[B1,B17,0] delta[B1,B17,1]
 delta[B1,B18,0] delta[B1,B18,1] delta[B1,B19,0] delta[B1,B19,1]
 delta[B1,B20,0] delta[B1,B20,1] delta[B1,B21,0] delta[B1,B21,1]
 delta[B1,B22,0] delta[B1,B22,1] delta[B1,B23,0] delta[B1,B23,1]
 delta[B1,B24,0] delta[B1,B24,1] delta[B1,B25,0] delta[B1,B25,1]
 delta[B1,B26,0] delta[B1,B26,1] delta[B1,B27,0] delta[B1,B27,1]
 delta[B1,B28,0] delta[B1,B28,1] delta[B1,B29,0] delta[B1,B29,1]
 delta[B1,B30,0] delta[B1,B30,1] delta[B1,B31,0] delta[B1,B31,1]
 delta[B1,B32,0] delta[B1,B32,1] delta[B1,B33,0] delta[B1,B33,1]
 delta[B1,B34,0] delta[B1,B34,1] delta[B2,B0,0] delta[B2,B0,1]
 delta[B2,B1,0] delta[B2,B1,1] delta[B2,B3,0] delta[B2,B3,1] delta[B2,B4,0]
 delta[B2,B4,1] delta[B2,B5,0] delta[B2,B5,1] delta[B2,B6,0] delta[B2,B6,1]
 delta[B2,B7,0] delta[B2,B7,1] delta[B2,B8,0] delta[B2,B8,1] delta[B2,B9,0]
 delta[B2,B9,1] delta[B2,B10,0] delta[B2,B10,1] delta[B2,B11,0]
 delta[B2,B11,1] delta[B2,B12,0] delta[B2,B12,1] delta[B2,B13,0]
 delta[B2,B13,1] delta[B2,B14,0] delta[B2,B14,1] delta[B2,B15,0]
 delta[B2,B15,1] delta[B2,B16,0] delta[B2,B16,1] delta[B2,B17,0]
 delta[B2,B17,1] delta[B2,B18,0] delta[B2,B18,1] delta[B2,B19,0]
 delta[B2,B19,1] delta[B2,B20,0] delta[B2,B20,1] delta[B2,B21,0]
 delta[B2,B21,1] delta[B2,B22,0] delta[B2,B22,1] delta[B2,B23,0]
 delta[B2,B23,1] delta[B2,B24,0] delta[B2,B24,1] delta[B2,B25,0]
 delta[B2,B25,1] delta[B2,B26,0] delta[B2,B26,1] delta[B2,B27,0]
 delta[B2,B27,1] delta[B2,B28,0] delta[B2,B28,1] delta[B2,B29,0]
 delta[B2,B29,1] delta[B2,B30,0] delta[B2,B30,1] delta[B2,B31,0]
 delta[B2,B31,1] delta[B2,B32,0] delta[B2,B32,1] delta[B2,B33,0]
 delta[B2,B33,1] delta[B2,B34,0] delta[B2,B34,1] delta[B3,B0,0]
 delta[B3,B0,1] delta[B3,B1,0] delta[B3,B1,1] delta[B3,B2,0] delta[B3,B2,1]
 delta[B3,B4,0] delta[B3,B4,1] delta[B3,B5,0] delta[B3,B5,1] delta[B3,B6,0]
 delta[B3,B6,1] delta[B3,B7,0] delta[B3,B7,1] delta[B3,B8,0] delta[B3,B8,1]
 delta[B3,B9,0] delta[B3,B9,1] delta[B3,B10,0] delta[B3,B10,1]
 delta[B3,B11,0] delta[B3,B11,1] delta[B3,B12,0] delta[B3,B12,1]
 delta[B3,B13,0] delta[B3,B13,1] delta[B3,B14,0] delta[B3,B14,1]
 delta[B3,B15,0] delta[B3,B15,1] delta[B3,B16,0] delta[B3,B16,1]
 delta[B3,B17,0] delta[B3,B17,1] delta[B3,B18,0] delta[B3,B18,1]
 delta[B3,B19,0] delta[B3,B19,1] delta[B3,B20,0] delta[B3,B20,1]
 delta[B3,B21,0] delta[B3,B21,1] delta[B3,B22,0] delta[B3,B22,1]
 delta[B3,B23,0] delta[B3,B23,1] delta[B3,B24,0] delta[B3,B24,1]
 delta[B3,B25,0] delta[B3,B25,1] delta[B3,B26,0] delta[B3,B26,1]
 delta[B3,B27,0] delta[B3,B27,1] delta[B3,B28,0] delta[B3,B28,1]
 delta[B3,B29,0] delta[B3,B29,1] delta[B3,B30,0] delta[B3,B30,1]
 delta[B3,B31,0] delta[B3,B31,1] delta[B3,B32,0] delta[B3,B32,1]
 delta[B3,B33,0] delta[B3,B33,1] delta[B3,B34,0] delta[B3,B34,1]
 delta[B4,B0,0] delta[B4,B0,1] delta[B4,B1,0] delta[B4,B1,1] delta[B4,B2,0]
 delta[B4,B2,1] delta[B4,B3,0] delta[B4,B3,1] delta[B4,B5,0] delta[B4,B5,1]
 delta[B4,B6,0] delta[B4,B6,1] delta[B4,B7,0] delta[B4,B7,1] delta[B4,B8,0]
 delta[B4,B8,1] delta[B4,B9,0] delta[B4,B9,1] delta[B4,B10,0]
 delta[B4,B10,1] delta[B4,B11,0] delta[B4,B11,1] delta[B4,B12,0]
 delta[B4,B12,1] delta[B4,B13,0] delta[B4,B13,1] delta[B4,B14,0]
 delta[B4,B14,1] delta[B4,B15,0] delta[B4,B15,1] delta[B4,B16,0]
 delta[B4,B16,1] delta[B4,B17,0] delta[B4,B17,1] delta[B4,B18,0]
 delta[B4,B18,1] delta[B4,B19,0] delta[B4,B19,1] delta[B4,B20,0]
 delta[B4,B20,1] delta[B4,B21,0] delta[B4,B21,1] delta[B4,B22,0]
 delta[B4,B22,1] delta[B4,B23,0] delta[B4,B23,1] delta[B4,B24,0]
 delta[B4,B24,1] delta[B4,B25,0] delta[B4,B25,1] delta[B4,B26,0]
 delta[B4,B26,1] delta[B4,B27,0] delta[B4,B27,1] delta[B4,B28,0]
 delta[B4,B28,1] delta[B4,B29,0] delta[B4,B29,1] delta[B4,B30,0]
 delta[B4,B30,1] delta[B4,B31,0] delta[B4,B31,1] delta[B4,B32,0]
 delta[B4,B32,1] delta[B4,B33,0] delta[B4,B33,1] delta[B4,B34,0]
 delta[B4,B34,1] delta[B5,B0,0] delta[B5,B0,1] delta[B5,B1,0]
 delta[B5,B1,1] delta[B5,B2,0] delta[B5,B2,1] delta[B5,B3,0] delta[B5,B3,1]
 delta[B5,B4,0] delta[B5,B4,1] delta[B5,B6,0] delta[B5,B6,1] delta[B5,B7,0]
 delta[B5,B7,1] delta[B5,B8,0] delta[B5,B8,1] delta[B5,B9,0] delta[B5,B9,1]
 delta[B5,B10,0] delta[B5,B10,1] delta[B5,B11,0] delta[B5,B11,1]
 delta[B5,B12,0] delta[B5,B12,1] delta[B5,B13,0] delta[B5,B13,1]
 delta[B5,B14,0] delta[B5,B14,1] delta[B5,B15,0] delta[B5,B15,1]
 delta[B5,B16,0] delta[B5,B16,1] delta[B5,B17,0] delta[B5,B17,1]
 delta[B5,B18,0] delta[B5,B18,1] delta[B5,B19,0] delta[B5,B19,1]
 delta[B5,B20,0] delta[B5,B20,1] delta[B5,B21,0] delta[B5,B21,1]
 delta[B5,B22,0] delta[B5,B22,1] delta[B5,B23,0] delta[B5,B23,1]
 delta[B5,B24,0] delta[B5,B24,1] delta[B5,B25,0] delta[B5,B25,1]
 delta[B5,B26,0] delta[B5,B26,1] delta[B5,B27,0] delta[B5,B27,1]
 delta[B5,B28,0] delta[B5,B28,1] delta[B5,B29,0] delta[B5,B29,1]
 delta[B5,B30,0] delta[B5,B30,1] delta[B5,B31,0] delta[B5,B31,1]
 delta[B5,B32,0] delta[B5,B32,1] delta[B5,B33,0] delta[B5,B33,1]
 delta[B5,B34,0] delta[B5,B34,1] delta[B6,B0,0] delta[B6,B0,1]
 delta[B6,B1,0] delta[B6,B1,1] delta[B6,B2,0] delta[B6,B2,1] delta[B6,B3,0]
 delta[B6,B3,1] delta[B6,B4,0] delta[B6,B4,1] delta[B6,B5,0] delta[B6,B5,1]
 delta[B6,B7,0] delta[B6,B7,1] delta[B6,B8,0] delta[B6,B8,1] delta[B6,B9,0]
 delta[B6,B9,1] delta[B6,B10,0] delta[B6,B10,1] delta[B6,B11,0]
 delta[B6,B11,1] delta[B6,B12,0] delta[B6,B12,1] delta[B6,B13,0]
 delta[B6,B13,1] delta[B6,B14,0] delta[B6,B14,1] delta[B6,B15,0]
 delta[B6,B15,1] delta[B6,B16,0] delta[B6,B16,1] delta[B6,B17,0]
 delta[B6,B17,1] delta[B6,B18,0] delta[B6,B18,1] delta[B6,B19,0]
 delta[B6,B19,1] delta[B6,B20,0] delta[B6,B20,1] delta[B6,B21,0]
 delta[B6,B21,1] delta[B6,B22,0] delta[B6,B22,1] delta[B6,B23,0]
 delta[B6,B23,1] delta[B6,B24,0] delta[B6,B24,1] delta[B6,B25,0]
 delta[B6,B25,1] delta[B6,B26,0] delta[B6,B26,1] delta[B6,B27,0]
 delta[B6,B27,1] delta[B6,B28,0] delta[B6,B28,1] delta[B6,B29,0]
 delta[B6,B29,1] delta[B6,B30,0] delta[B6,B30,1] delta[B6,B31,0]
 delta[B6,B31,1] delta[B6,B32,0] delta[B6,B32,1] delta[B6,B33,0]
 delta[B6,B33,1] delta[B6,B34,0] delta[B6,B34,1] delta[B7,B0,0]
 delta[B7,B0,1] delta[B7,B1,0] delta[B7,B1,1] delta[B7,B2,0] delta[B7,B2,1]
 delta[B7,B3,0] delta[B7,B3,1] delta[B7,B4,0] delta[B7,B4,1] delta[B7,B5,0]
 delta[B7,B5,1] delta[B7,B6,0] delta[B7,B6,1] delta[B7,B8,0] delta[B7,B8,1]
 delta[B7,B9,0] delta[B7,B9,1] delta[B7,B10,0] delta[B7,B10,1]
 delta[B7,B11,0] delta[B7,B11,1] delta[B7,B12,0] delta[B7,B12,1]
 delta[B7,B13,0] delta[B7,B13,1] delta[B7,B14,0] delta[B7,B14,1]
 delta[B7,B15,0] delta[B7,B15,1] delta[B7,B16,0] delta[B7,B16,1]
 delta[B7,B17,0] delta[B7,B17,1] delta[B7,B18,0] delta[B7,B18,1]
 delta[B7,B19,0] delta[B7,B19,1] delta[B7,B20,0] delta[B7,B20,1]
 delta[B7,B21,0] delta[B7,B21,1] delta[B7,B22,0] delta[B7,B22,1]
 delta[B7,B23,0] delta[B7,B23,1] delta[B7,B24,0] delta[B7,B24,1]
 delta[B7,B25,0] delta[B7,B25,1] delta[B7,B26,0] delta[B7,B26,1]
 delta[B7,B27,0] delta[B7,B27,1] delta[B7,B28,0] delta[B7,B28,1]
 delta[B7,B29,0] delta[B7,B29,1] delta[B7,B30,0] delta[B7,B30,1]
 delta[B7,B31,0] delta[B7,B31,1] delta[B7,B32,0] delta[B7,B32,1]
 delta[B7,B33,0] delta[B7,B33,1] delta[B7,B34,0] delta[B7,B34,1]
 delta[B8,B0,0] delta[B8,B0,1] delta[B8,B1,0] delta[B8,B1,1] delta[B8,B2,0]
 delta[B8,B2,1] delta[B8,B3,0] delta[B8,B3,1] delta[B8,B4,0] delta[B8,B4,1]
 delta[B8,B5,0] delta[B8,B5,1] delta[B8,B6,0] delta[B8,B6,1] delta[B8,B7,0]
 delta[B8,B7,1] delta[B8,B9,0] delta[B8,B9,1] delta[B8,B10,0]
 delta[B8,B10,1] delta[B8,B11,0] delta[B8,B11,1] delta[B8,B12,0]
 delta[B8,B12,1] delta[B8,B13,0] delta[B8,B13,1] delta[B8,B14,0]
 delta[B8,B14,1] delta[B8,B15,0] delta[B8,B15,1] delta[B8,B16,0]
 delta[B8,B16,1] delta[B8,B17,0] delta[B8,B17,1] delta[B8,B18,0]
 delta[B8,B18,1] delta[B8,B19,0] delta[B8,B19,1] delta[B8,B20,0]
 delta[B8,B20,1] delta[B8,B21,0] delta[B8,B21,1] delta[B8,B22,0]
 delta[B8,B22,1] delta[B8,B23,0] delta[B8,B23,1] delta[B8,B24,0]
 delta[B8,B24,1] delta[B8,B25,0] delta[B8,B25,1] delta[B8,B26,0]
 delta[B8,B26,1] delta[B8,B27,0] delta[B8,B27,1] delta[B8,B28,0]
 delta[B8,B28,1] delta[B8,B29,0] delta[B8,B29,1] delta[B8,B30,0]
 delta[B8,B30,1] delta[B8,B31,0] delta[B8,B31,1] delta[B8,B32,0]
 delta[B8,B32,1] delta[B8,B33,0] delta[B8,B33,1] delta[B8,B34,0]
 delta[B8,B34,1] delta[B9,B0,0] delta[B9,B0,1] delta[B9,B1,0]
 delta[B9,B1,1] delta[B9,B2,0] delta[B9,B2,1] delta[B9,B3,0] delta[B9,B3,1]
 delta[B9,B4,0] delta[B9,B4,1] delta[B9,B5,0] delta[B9,B5,1] delta[B9,B6,0]
 delta[B9,B6,1] delta[B9,B7,0] delta[B9,B7,1] delta[B9,B8,0] delta[B9,B8,1]
 delta[B9,B10,0] delta[B9,B10,1] delta[B9,B11,0] delta[B9,B11,1]
 delta[B9,B12,0] delta[B9,B12,1] delta[B9,B13,0] delta[B9,B13,1]
 delta[B9,B14,0] delta[B9,B14,1] delta[B9,B15,0] delta[B9,B15,1]
 delta[B9,B16,0] delta[B9,B16,1] delta[B9,B17,0] delta[B9,B17,1]
 delta[B9,B18,0] delta[B9,B18,1] delta[B9,B19,0] delta[B9,B19,1]
 delta[B9,B20,0] delta[B9,B20,1] delta[B9,B21,0] delta[B9,B21,1]
 delta[B9,B22,0] delta[B9,B22,1] delta[B9,B23,0] delta[B9,B23,1]
 delta[B9,B24,0] delta[B9,B24,1] delta[B9,B25,0] delta[B9,B25,1]
 delta[B9,B26,0] delta[B9,B26,1] delta[B9,B27,0] delta[B9,B27,1]
 delta[B9,B28,0] delta[B9,B28,1] delta[B9,B29,0] delta[B9,B29,1]
 delta[B9,B30,0] delta[B9,B30,1] delta[B9,B31,0] delta[B9,B31,1]
 delta[B9,B32,0] delta[B9,B32,1] delta[B9,B33,0] delta[B9,B33,1]
 delta[B9,B34,0] delta[B9,B34,1] delta[B10,B0,0] delta[B10,B0,1]
 delta[B10,B1,0] delta[B10,B1,1] delta[B10,B2,0] delta[B10,B2,1]
 delta[B10,B3,0] delta[B10,B3,1] delta[B10,B4,0] delta[B10,B4,1]
 delta[B10,B5,0] delta[B10,B5,1] delta[B10,B6,0] delta[B10,B6,1]
 delta[B10,B7,0] delta[B10,B7,1] delta[B10,B8,0] delta[B10,B8,1]
 delta[B10,B9,0] delta[B10,B9,1] delta[B10,B11,0] delta[B10,B11,1]
 delta[B10,B12,0] delta[B10,B12,1] delta[B10,B13,0] delta[B10,B13,1]
 delta[B10,B14,0] delta[B10,B14,1] delta[B10,B15,0] delta[B10,B15,1]
 delta[B10,B16,0] delta[B10,B16,1] delta[B10,B17,0] delta[B10,B17,1]
 delta[B10,B18,0] delta[B10,B18,1] delta[B10,B19,0] delta[B10,B19,1]
 delta[B10,B20,0] delta[B10,B20,1] delta[B10,B21,0] delta[B10,B21,1]
 delta[B10,B22,0] delta[B10,B22,1] delta[B10,B23,0] delta[B10,B23,1]
 delta[B10,B24,0] delta[B10,B24,1] delta[B10,B25,0] delta[B10,B25,1]
 delta[B10,B26,0] delta[B10,B26,1] delta[B10,B27,0] delta[B10,B27,1]
 delta[B10,B28,0] delta[B10,B28,1] delta[B10,B29,0] delta[B10,B29,1]
 delta[B10,B30,0] delta[B10,B30,1] delta[B10,B31,0] delta[B10,B31,1]
 delta[B10,B32,0] delta[B10,B32,1] delta[B10,B33,0] delta[B10,B33,1]
 delta[B10,B34,0] delta[B10,B34,1] delta[B11,B0,0] delta[B11,B0,1]
 delta[B11,B1,0] delta[B11,B1,1] delta[B11,B2,0] delta[B11,B2,1]
 delta[B11,B3,0] delta[B11,B3,1] delta[B11,B4,0] delta[B11,B4,1]
 delta[B11,B5,0] delta[B11,B5,1] delta[B11,B6,0] delta[B11,B6,1]
 delta[B11,B7,0] delta[B11,B7,1] delta[B11,B8,0] delta[B11,B8,1]
 delta[B11,B9,0] delta[B11,B9,1] delta[B11,B10,0] delta[B11,B10,1]
 delta[B11,B12,0] delta[B11,B12,1] delta[B11,B13,0] delta[B11,B13,1]
 delta[B11,B14,0] delta[B11,B14,1] delta[B11,B15,0] delta[B11,B15,1]
 delta[B11,B16,0] delta[B11,B16,1] delta[B11,B17,0] delta[B11,B17,1]
 delta[B11,B18,0] delta[B11,B18,1] delta[B11,B19,0] delta[B11,B19,1]
 delta[B11,B20,0] delta[B11,B20,1] delta[B11,B21,0] delta[B11,B21,1]
 delta[B11,B22,0] delta[B11,B22,1] delta[B11,B23,0] delta[B11,B23,1]
 delta[B11,B24,0] delta[B11,B24,1] delta[B11,B25,0] delta[B11,B25,1]
 delta[B11,B26,0] delta[B11,B26,1] delta[B11,B27,0] delta[B11,B27,1]
 delta[B11,B28,0] delta[B11,B28,1] delta[B11,B29,0] delta[B11,B29,1]
 delta[B11,B30,0] delta[B11,B30,1] delta[B11,B31,0] delta[B11,B31,1]
 delta[B11,B32,0] delta[B11,B32,1] delta[B11,B33,0] delta[B11,B33,1]
 delta[B11,B34,0] delta[B11,B34,1] delta[B12,B0,0] delta[B12,B0,1]
 delta[B12,B1,0] delta[B12,B1,1] delta[B12,B2,0] delta[B12,B2,1]
 delta[B12,B3,0] delta[B12,B3,1] delta[B12,B4,0] delta[B12,B4,1]
 delta[B12,B5,0] delta[B12,B5,1] delta[B12,B6,0] delta[B12,B6,1]
 delta[B12,B7,0] delta[B12,B7,1] delta[B12,B8,0] delta[B12,B8,1]
 delta[B12,B9,0] delta[B12,B9,1] delta[B12,B10,0] delta[B12,B10,1]
 delta[B12,B11,0] delta[B12,B11,1] delta[B12,B13,0] delta[B12,B13,1]
 delta[B12,B14,0] delta[B12,B14,1] delta[B12,B15,0] delta[B12,B15,1]
 delta[B12,B16,0] delta[B12,B16,1] delta[B12,B17,0] delta[B12,B17,1]
 delta[B12,B18,0] delta[B12,B18,1] delta[B12,B19,0] delta[B12,B19,1]
 delta[B12,B20,0] delta[B12,B20,1] delta[B12,B21,0] delta[B12,B21,1]
 delta[B12,B22,0] delta[B12,B22,1] delta[B12,B23,0] delta[B12,B23,1]
 delta[B12,B24,0] delta[B12,B24,1] delta[B12,B25,0] delta[B12,B25,1]
 delta[B12,B26,0] delta[B12,B26,1] delta[B12,B27,0] delta[B12,B27,1]
 delta[B12,B28,0] delta[B12,B28,1] delta[B12,B29,0] delta[B12,B29,1]
 delta[B12,B30,0] delta[B12,B30,1] delta[B12,B31,0] delta[B12,B31,1]
 delta[B12,B32,0] delta[B12,B32,1] delta[B12,B33,0] delta[B12,B33,1]
 delta[B12,B34,0] delta[B12,B34,1] delta[B13,B0,0] delta[B13,B0,1]
 delta[B13,B1,0] delta[B13,B1,1] delta[B13,B2,0] delta[B13,B2,1]
 delta[B13,B3,0] delta[B13,B3,1] delta[B13,B4,0] delta[B13,B4,1]
 delta[B13,B5,0] delta[B13,B5,1] delta[B13,B6,0] delta[B13,B6,1]
 delta[B13,B7,0] delta[B13,B7,1] delta[B13,B8,0] delta[B13,B8,1]
 delta[B13,B9,0] delta[B13,B9,1] delta[B13,B10,0] delta[B13,B10,1]
 delta[B13,B11,0] delta[B13,B11,1] delta[B13,B12,0] delta[B13,B12,1]
 delta[B13,B14,0] delta[B13,B14,1] delta[B13,B15,0] delta[B13,B15,1]
 delta[B13,B16,0] delta[B13,B16,1] delta[B13,B17,0] delta[B13,B17,1]
 delta[B13,B18,0] delta[B13,B18,1] delta[B13,B19,0] delta[B13,B19,1]
 delta[B13,B20,0] delta[B13,B20,1] delta[B13,B21,0] delta[B13,B21,1]
 delta[B13,B22,0] delta[B13,B22,1] delta[B13,B23,0] delta[B13,B23,1]
 delta[B13,B24,0] delta[B13,B24,1] delta[B13,B25,0] delta[B13,B25,1]
 delta[B13,B26,0] delta[B13,B26,1] delta[B13,B27,0] delta[B13,B27,1]
 delta[B13,B28,0] delta[B13,B28,1] delta[B13,B29,0] delta[B13,B29,1]
 delta[B13,B30,0] delta[B13,B30,1] delta[B13,B31,0] delta[B13,B31,1]
 delta[B13,B32,0] delta[B13,B32,1] delta[B13,B33,0] delta[B13,B33,1]
 delta[B13,B34,0] delta[B13,B34,1] delta[B14,B0,0] delta[B14,B0,1]
 delta[B14,B1,0] delta[B14,B1,1] delta[B14,B2,0] delta[B14,B2,1]
 delta[B14,B3,0] delta[B14,B3,1] delta[B14,B4,0] delta[B14,B4,1]
 delta[B14,B5,0] delta[B14,B5,1] delta[B14,B6,0] delta[B14,B6,1]
 delta[B14,B7,0] delta[B14,B7,1] delta[B14,B8,0] delta[B14,B8,1]
 delta[B14,B9,0] delta[B14,B9,1] delta[B14,B10,0] delta[B14,B10,1]
 delta[B14,B11,0] delta[B14,B11,1] delta[B14,B12,0] delta[B14,B12,1]
 delta[B14,B13,0] delta[B14,B13,1] delta[B14,B15,0] delta[B14,B15,1]
 delta[B14,B16,0] delta[B14,B16,1] delta[B14,B17,0] delta[B14,B17,1]
 delta[B14,B18,0] delta[B14,B18,1] delta[B14,B19,0] delta[B14,B19,1]
 delta[B14,B20,0] delta[B14,B20,1] delta[B14,B21,0] delta[B14,B21,1]
 delta[B14,B22,0] delta[B14,B22,1] delta[B14,B23,0] delta[B14,B23,1]
 delta[B14,B24,0] delta[B14,B24,1] delta[B14,B25,0] delta[B14,B25,1]
 delta[B14,B26,0] delta[B14,B26,1] delta[B14,B27,0] delta[B14,B27,1]
 delta[B14,B28,0] delta[B14,B28,1] delta[B14,B29,0] delta[B14,B29,1]
 delta[B14,B30,0] delta[B14,B30,1] delta[B14,B31,0] delta[B14,B31,1]
 delta[B14,B32,0] delta[B14,B32,1] delta[B14,B33,0] delta[B14,B33,1]
 delta[B14,B34,0] delta[B14,B34,1] delta[B15,B0,0] delta[B15,B0,1]
 delta[B15,B1,0] delta[B15,B1,1] delta[B15,B2,0] delta[B15,B2,1]
 delta[B15,B3,0] delta[B15,B3,1] delta[B15,B4,0] delta[B15,B4,1]
 delta[B15,B5,0] delta[B15,B5,1] delta[B15,B6,0] delta[B15,B6,1]
 delta[B15,B7,0] delta[B15,B7,1] delta[B15,B8,0] delta[B15,B8,1]
 delta[B15,B9,0] delta[B15,B9,1] delta[B15,B10,0] delta[B15,B10,1]
 delta[B15,B11,0] delta[B15,B11,1] delta[B15,B12,0] delta[B15,B12,1]
 delta[B15,B13,0] delta[B15,B13,1] delta[B15,B14,0] delta[B15,B14,1]
 delta[B15,B16,0] delta[B15,B16,1] delta[B15,B17,0] delta[B15,B17,1]
 delta[B15,B18,0] delta[B15,B18,1] delta[B15,B19,0] delta[B15,B19,1]
 delta[B15,B20,0] delta[B15,B20,1] delta[B15,B21,0] delta[B15,B21,1]
 delta[B15,B22,0] delta[B15,B22,1] delta[B15,B23,0] delta[B15,B23,1]
 delta[B15,B24,0] delta[B15,B24,1] delta[B15,B25,0] delta[B15,B25,1]
 delta[B15,B26,0] delta[B15,B26,1] delta[B15,B27,0] delta[B15,B27,1]
 delta[B15,B28,0] delta[B15,B28,1] delta[B15,B29,0] delta[B15,B29,1]
 delta[B15,B30,0] delta[B15,B30,1] delta[B15,B31,0] delta[B15,B31,1]
 delta[B15,B32,0] delta[B15,B32,1] delta[B15,B33,0] delta[B15,B33,1]
 delta[B15,B34,0] delta[B15,B34,1] delta[B16,B0,0] delta[B16,B0,1]
 delta[B16,B1,0] delta[B16,B1,1] delta[B16,B2,0] delta[B16,B2,1]
 delta[B16,B3,0] delta[B16,B3,1] delta[B16,B4,0] delta[B16,B4,1]
 delta[B16,B5,0] delta[B16,B5,1] delta[B16,B6,0] delta[B16,B6,1]
 delta[B16,B7,0] delta[B16,B7,1] delta[B16,B8,0] delta[B16,B8,1]
 delta[B16,B9,0] delta[B16,B9,1] delta[B16,B10,0] delta[B16,B10,1]
 delta[B16,B11,0] delta[B16,B11,1] delta[B16,B12,0] delta[B16,B12,1]
 delta[B16,B13,0] delta[B16,B13,1] delta[B16,B14,0] delta[B16,B14,1]
 delta[B16,B15,0] delta[B16,B15,1] delta[B16,B17,0] delta[B16,B17,1]
 delta[B16,B18,0] delta[B16,B18,1] delta[B16,B19,0] delta[B16,B19,1]
 delta[B16,B20,0] delta[B16,B20,1] delta[B16,B21,0] delta[B16,B21,1]
 delta[B16,B22,0] delta[B16,B22,1] delta[B16,B23,0] delta[B16,B23,1]
 delta[B16,B24,0] delta[B16,B24,1] delta[B16,B25,0] delta[B16,B25,1]
 delta[B16,B26,0] delta[B16,B26,1] delta[B16,B27,0] delta[B16,B27,1]
 delta[B16,B28,0] delta[B16,B28,1] delta[B16,B29,0] delta[B16,B29,1]
 delta[B16,B30,0] delta[B16,B30,1] delta[B16,B31,0] delta[B16,B31,1]
 delta[B16,B32,0] delta[B16,B32,1] delta[B16,B33,0] delta[B16,B33,1]
 delta[B16,B34,0] delta[B16,B34,1] delta[B17,B0,0] delta[B17,B0,1]
 delta[B17,B1,0] delta[B17,B1,1] delta[B17,B2,0] delta[B17,B2,1]
 delta[B17,B3,0] delta[B17,B3,1] delta[B17,B4,0] delta[B17,B4,1]
 delta[B17,B5,0] delta[B17,B5,1] delta[B17,B6,0] delta[B17,B6,1]
 delta[B17,B7,0] delta[B17,B7,1] delta[B17,B8,0] delta[B17,B8,1]
 delta[B17,B9,0] delta[B17,B9,1] delta[B17,B10,0] delta[B17,B10,1]
 delta[B17,B11,0] delta[B17,B11,1] delta[B17,B12,0] delta[B17,B12,1]
 delta[B17,B13,0] delta[B17,B13,1] delta[B17,B14,0] delta[B17,B14,1]
 delta[B17,B15,0] delta[B17,B15,1] delta[B17,B16,0] delta[B17,B16,1]
 delta[B17,B18,0] delta[B17,B18,1] delta[B17,B19,0] delta[B17,B19,1]
 delta[B17,B20,0] delta[B17,B20,1] delta[B17,B21,0] delta[B17,B21,1]
 delta[B17,B22,0] delta[B17,B22,1] delta[B17,B23,0] delta[B17,B23,1]
 delta[B17,B24,0] delta[B17,B24,1] delta[B17,B25,0] delta[B17,B25,1]
 delta[B17,B26,0] delta[B17,B26,1] delta[B17,B27,0] delta[B17,B27,1]
 delta[B17,B28,0] delta[B17,B28,1] delta[B17,B29,0] delta[B17,B29,1]
 delta[B17,B30,0] delta[B17,B30,1] delta[B17,B31,0] delta[B17,B31,1]
 delta[B17,B32,0] delta[B17,B32,1] delta[B17,B33,0] delta[B17,B33,1]
 delta[B17,B34,0] delta[B17,B34,1] delta[B18,B0,0] delta[B18,B0,1]
 delta[B18,B1,0] delta[B18,B1,1] delta[B18,B2,0] delta[B18,B2,1]
 delta[B18,B3,0] delta[B18,B3,1] delta[B18,B4,0] delta[B18,B4,1]
 delta[B18,B5,0] delta[B18,B5,1] delta[B18,B6,0] delta[B18,B6,1]
 delta[B18,B7,0] delta[B18,B7,1] delta[B18,B8,0] delta[B18,B8,1]
 delta[B18,B9,0] delta[B18,B9,1] delta[B18,B10,0] delta[B18,B10,1]
 delta[B18,B11,0] delta[B18,B11,1] delta[B18,B12,0] delta[B18,B12,1]
 delta[B18,B13,0] delta[B18,B13,1] delta[B18,B14,0] delta[B18,B14,1]
 delta[B18,B15,0] delta[B18,B15,1] delta[B18,B16,0] delta[B18,B16,1]
 delta[B18,B17,0] delta[B18,B17,1] delta[B18,B19,0] delta[B18,B19,1]
 delta[B18,B20,0] delta[B18,B20,1] delta[B18,B21,0] delta[B18,B21,1]
 delta[B18,B22,0] delta[B18,B22,1] delta[B18,B23,0] delta[B18,B23,1]
 delta[B18,B24,0] delta[B18,B24,1] delta[B18,B25,0] delta[B18,B25,1]
 delta[B18,B26,0] delta[B18,B26,1] delta[B18,B27,0] delta[B18,B27,1]
 delta[B18,B28,0] delta[B18,B28,1] delta[B18,B29,0] delta[B18,B29,1]
 delta[B18,B30,0] delta[B18,B30,1] delta[B18,B31,0] delta[B18,B31,1]
 delta[B18,B32,0] delta[B18,B32,1] delta[B18,B33,0] delta[B18,B33,1]
 delta[B18,B34,0] delta[B18,B34,1] delta[B19,B0,0] delta[B19,B0,1]
 delta[B19,B1,0] delta[B19,B1,1] delta[B19,B2,0] delta[B19,B2,1]
 delta[B19,B3,0] delta[B19,B3,1] delta[B19,B4,0] delta[B19,B4,1]
 delta[B19,B5,0] delta[B19,B5,1] delta[B19,B6,0] delta[B19,B6,1]
 delta[B19,B7,0] delta[B19,B7,1] delta[B19,B8,0] delta[B19,B8,1]
 delta[B19,B9,0] delta[B19,B9,1] delta[B19,B10,0] delta[B19,B10,1]
 delta[B19,B11,0] delta[B19,B11,1] delta[B19,B12,0] delta[B19,B12,1]
 delta[B19,B13,0] delta[B19,B13,1] delta[B19,B14,0] delta[B19,B14,1]
 delta[B19,B15,0] delta[B19,B15,1] delta[B19,B16,0] delta[B19,B16,1]
 delta[B19,B17,0] delta[B19,B17,1] delta[B19,B18,0] delta[B19,B18,1]
 delta[B19,B20,0] delta[B19,B20,1] delta[B19,B21,0] delta[B19,B21,1]
 delta[B19,B22,0] delta[B19,B22,1] delta[B19,B23,0] delta[B19,B23,1]
 delta[B19,B24,0] delta[B19,B24,1] delta[B19,B25,0] delta[B19,B25,1]
 delta[B19,B26,0] delta[B19,B26,1] delta[B19,B27,0] delta[B19,B27,1]
 delta[B19,B28,0] delta[B19,B28,1] delta[B19,B29,0] delta[B19,B29,1]
 delta[B19,B30,0] delta[B19,B30,1] delta[B19,B31,0] delta[B19,B31,1]
 delta[B19,B32,0] delta[B19,B32,1] delta[B19,B33,0] delta[B19,B33,1]
 delta[B19,B34,0] delta[B19,B34,1] delta[B20,B0,0] delta[B20,B0,1]
 delta[B20,B1,0] delta[B20,B1,1] delta[B20,B2,0] delta[B20,B2,1]
 delta[B20,B3,0] delta[B20,B3,1] delta[B20,B4,0] delta[B20,B4,1]
 delta[B20,B5,0] delta[B20,B5,1] delta[B20,B6,0] delta[B20,B6,1]
 delta[B20,B7,0] delta[B20,B7,1] delta[B20,B8,0] delta[B20,B8,1]
 delta[B20,B9,0] delta[B20,B9,1] delta[B20,B10,0] delta[B20,B10,1]
 delta[B20,B11,0] delta[B20,B11,1] delta[B20,B12,0] delta[B20,B12,1]
 delta[B20,B13,0] delta[B20,B13,1] delta[B20,B14,0] delta[B20,B14,1]
 delta[B20,B15,0] delta[B20,B15,1] delta[B20,B16,0] delta[B20,B16,1]
 delta[B20,B17,0] delta[B20,B17,1] delta[B20,B18,0] delta[B20,B18,1]
 delta[B20,B19,0] delta[B20,B19,1] delta[B20,B21,0] delta[B20,B21,1]
 delta[B20,B22,0] delta[B20,B22,1] delta[B20,B23,0] delta[B20,B23,1]
 delta[B20,B24,0] delta[B20,B24,1] delta[B20,B25,0] delta[B20,B25,1]
 delta[B20,B26,0] delta[B20,B26,1] delta[B20,B27,0] delta[B20,B27,1]
 delta[B20,B28,0] delta[B20,B28,1] delta[B20,B29,0] delta[B20,B29,1]
 delta[B20,B30,0] delta[B20,B30,1] delta[B20,B31,0] delta[B20,B31,1]
 delta[B20,B32,0] delta[B20,B32,1] delta[B20,B33,0] delta[B20,B33,1]
 delta[B20,B34,0] delta[B20,B34,1] delta[B21,B0,0] delta[B21,B0,1]
 delta[B21,B1,0] delta[B21,B1,1] delta[B21,B2,0] delta[B21,B2,1]
 delta[B21,B3,0] delta[B21,B3,1] delta[B21,B4,0] delta[B21,B4,1]
 delta[B21,B5,0] delta[B21,B5,1] delta[B21,B6,0] delta[B21,B6,1]
 delta[B21,B7,0] delta[B21,B7,1] delta[B21,B8,0] delta[B21,B8,1]
 delta[B21,B9,0] delta[B21,B9,1] delta[B21,B10,0] delta[B21,B10,1]
 delta[B21,B11,0] delta[B21,B11,1] delta[B21,B12,0] delta[B21,B12,1]
 delta[B21,B13,0] delta[B21,B13,1] delta[B21,B14,0] delta[B21,B14,1]
 delta[B21,B15,0] delta[B21,B15,1] delta[B21,B16,0] delta[B21,B16,1]
 delta[B21,B17,0] delta[B21,B17,1] delta[B21,B18,0] delta[B21,B18,1]
 delta[B21,B19,0] delta[B21,B19,1] delta[B21,B20,0] delta[B21,B20,1]
 delta[B21,B22,0] delta[B21,B22,1] delta[B21,B23,0] delta[B21,B23,1]
 delta[B21,B24,0] delta[B21,B24,1] delta[B21,B25,0] delta[B21,B25,1]
 delta[B21,B26,0] delta[B21,B26,1] delta[B21,B27,0] delta[B21,B27,1]
 delta[B21,B28,0] delta[B21,B28,1] delta[B21,B29,0] delta[B21,B29,1]
 delta[B21,B30,0] delta[B21,B30,1] delta[B21,B31,0] delta[B21,B31,1]
 delta[B21,B32,0] delta[B21,B32,1] delta[B21,B33,0] delta[B21,B33,1]
 delta[B21,B34,0] delta[B21,B34,1] delta[B22,B0,0] delta[B22,B0,1]
 delta[B22,B1,0] delta[B22,B1,1] delta[B22,B2,0] delta[B22,B2,1]
 delta[B22,B3,0] delta[B22,B3,1] delta[B22,B4,0] delta[B22,B4,1]
 delta[B22,B5,0] delta[B22,B5,1] delta[B22,B6,0] delta[B22,B6,1]
 delta[B22,B7,0] delta[B22,B7,1] delta[B22,B8,0] delta[B22,B8,1]
 delta[B22,B9,0] delta[B22,B9,1] delta[B22,B10,0] delta[B22,B10,1]
 delta[B22,B11,0] delta[B22,B11,1] delta[B22,B12,0] delta[B22,B12,1]
 delta[B22,B13,0] delta[B22,B13,1] delta[B22,B14,0] delta[B22,B14,1]
 delta[B22,B15,0] delta[B22,B15,1] delta[B22,B16,0] delta[B22,B16,1]
 delta[B22,B17,0] delta[B22,B17,1] delta[B22,B18,0] delta[B22,B18,1]
 delta[B22,B19,0] delta[B22,B19,1] delta[B22,B20,0] delta[B22,B20,1]
 delta[B22,B21,0] delta[B22,B21,1] delta[B22,B23,0] delta[B22,B23,1]
 delta[B22,B24,0] delta[B22,B24,1] delta[B22,B25,0] delta[B22,B25,1]
 delta[B22,B26,0] delta[B22,B26,1] delta[B22,B27,0] delta[B22,B27,1]
 delta[B22,B28,0] delta[B22,B28,1] delta[B22,B29,0] delta[B22,B29,1]
 delta[B22,B30,0] delta[B22,B30,1] delta[B22,B31,0] delta[B22,B31,1]
 delta[B22,B32,0] delta[B22,B32,1] delta[B22,B33,0] delta[B22,B33,1]
 delta[B22,B34,0] delta[B22,B34,1] delta[B23,B0,0] delta[B23,B0,1]
 delta[B23,B1,0] delta[B23,B1,1] delta[B23,B2,0] delta[B23,B2,1]
 delta[B23,B3,0] delta[B23,B3,1] delta[B23,B4,0] delta[B23,B4,1]
 delta[B23,B5,0] delta[B23,B5,1] delta[B23,B6,0] delta[B23,B6,1]
 delta[B23,B7,0] delta[B23,B7,1] delta[B23,B8,0] delta[B23,B8,1]
 delta[B23,B9,0] delta[B23,B9,1] delta[B23,B10,0] delta[B23,B10,1]
 delta[B23,B11,0] delta[B23,B11,1] delta[B23,B12,0] delta[B23,B12,1]
 delta[B23,B13,0] delta[B23,B13,1] delta[B23,B14,0] delta[B23,B14,1]
 delta[B23,B15,0] delta[B23,B15,1] delta[B23,B16,0] delta[B23,B16,1]
 delta[B23,B17,0] delta[B23,B17,1] delta[B23,B18,0] delta[B23,B18,1]
 delta[B23,B19,0] delta[B23,B19,1] delta[B23,B20,0] delta[B23,B20,1]
 delta[B23,B21,0] delta[B23,B21,1] delta[B23,B22,0] delta[B23,B22,1]
 delta[B23,B24,0] delta[B23,B24,1] delta[B23,B25,0] delta[B23,B25,1]
 delta[B23,B26,0] delta[B23,B26,1] delta[B23,B27,0] delta[B23,B27,1]
 delta[B23,B28,0] delta[B23,B28,1] delta[B23,B29,0] delta[B23,B29,1]
 delta[B23,B30,0] delta[B23,B30,1] delta[B23,B31,0] delta[B23,B31,1]
 delta[B23,B32,0] delta[B23,B32,1] delta[B23,B33,0] delta[B23,B33,1]
 delta[B23,B34,0] delta[B23,B34,1] delta[B24,B0,0] delta[B24,B0,1]
 delta[B24,B1,0] delta[B24,B1,1] delta[B24,B2,0] delta[B24,B2,1]
 delta[B24,B3,0] delta[B24,B3,1] delta[B24,B4,0] delta[B24,B4,1]
 delta[B24,B5,0] delta[B24,B5,1] delta[B24,B6,0] delta[B24,B6,1]
 delta[B24,B7,0] delta[B24,B7,1] delta[B24,B8,0] delta[B24,B8,1]
 delta[B24,B9,0] delta[B24,B9,1] delta[B24,B10,0] delta[B24,B10,1]
 delta[B24,B11,0] delta[B24,B11,1] delta[B24,B12,0] delta[B24,B12,1]
 delta[B24,B13,0] delta[B24,B13,1] delta[B24,B14,0] delta[B24,B14,1]
 delta[B24,B15,0] delta[B24,B15,1] delta[B24,B16,0] delta[B24,B16,1]
 delta[B24,B17,0] delta[B24,B17,1] delta[B24,B18,0] delta[B24,B18,1]
 delta[B24,B19,0] delta[B24,B19,1] delta[B24,B20,0] delta[B24,B20,1]
 delta[B24,B21,0] delta[B24,B21,1] delta[B24,B22,0] delta[B24,B22,1]
 delta[B24,B23,0] delta[B24,B23,1] delta[B24,B25,0] delta[B24,B25,1]
 delta[B24,B26,0] delta[B24,B26,1] delta[B24,B27,0] delta[B24,B27,1]
 delta[B24,B28,0] delta[B24,B28,1] delta[B24,B29,0] delta[B24,B29,1]
 delta[B24,B30,0] delta[B24,B30,1] delta[B24,B31,0] delta[B24,B31,1]
 delta[B24,B32,0] delta[B24,B32,1] delta[B24,B33,0] delta[B24,B33,1]
 delta[B24,B34,0] delta[B24,B34,1] delta[B25,B0,0] delta[B25,B0,1]
 delta[B25,B1,0] delta[B25,B1,1] delta[B25,B2,0] delta[B25,B2,1]
 delta[B25,B3,0] delta[B25,B3,1] delta[B25,B4,0] delta[B25,B4,1]
 delta[B25,B5,0] delta[B25,B5,1] delta[B25,B6,0] delta[B25,B6,1]
 delta[B25,B7,0] delta[B25,B7,1] delta[B25,B8,0] delta[B25,B8,1]
 delta[B25,B9,0] delta[B25,B9,1] delta[B25,B10,0] delta[B25,B10,1]
 delta[B25,B11,0] delta[B25,B11,1] delta[B25,B12,0] delta[B25,B12,1]
 delta[B25,B13,0] delta[B25,B13,1] delta[B25,B14,0] delta[B25,B14,1]
 delta[B25,B15,0] delta[B25,B15,1] delta[B25,B16,0] delta[B25,B16,1]
 delta[B25,B17,0] delta[B25,B17,1] delta[B25,B18,0] delta[B25,B18,1]
 delta[B25,B19,0] delta[B25,B19,1] delta[B25,B20,0] delta[B25,B20,1]
 delta[B25,B21,0] delta[B25,B21,1] delta[B25,B22,0] delta[B25,B22,1]
 delta[B25,B23,0] delta[B25,B23,1] delta[B25,B24,0] delta[B25,B24,1]
 delta[B25,B26,0] delta[B25,B26,1] delta[B25,B27,0] delta[B25,B27,1]
 delta[B25,B28,0] delta[B25,B28,1] delta[B25,B29,0] delta[B25,B29,1]
 delta[B25,B30,0] delta[B25,B30,1] delta[B25,B31,0] delta[B25,B31,1]
 delta[B25,B32,0] delta[B25,B32,1] delta[B25,B33,0] delta[B25,B33,1]
 delta[B25,B34,0] delta[B25,B34,1] delta[B26,B0,0] delta[B26,B0,1]
 delta[B26,B1,0] delta[B26,B1,1] delta[B26,B2,0] delta[B26,B2,1]
 delta[B26,B3,0] delta[B26,B3,1] delta[B26,B4,0] delta[B26,B4,1]
 delta[B26,B5,0] delta[B26,B5,1] delta[B26,B6,0] delta[B26,B6,1]
 delta[B26,B7,0] delta[B26,B7,1] delta[B26,B8,0] delta[B26,B8,1]
 delta[B26,B9,0] delta[B26,B9,1] delta[B26,B10,0] delta[B26,B10,1]
 delta[B26,B11,0] delta[B26,B11,1] delta[B26,B12,0] delta[B26,B12,1]
 delta[B26,B13,0] delta[B26,B13,1] delta[B26,B14,0] delta[B26,B14,1]
 delta[B26,B15,0] delta[B26,B15,1] delta[B26,B16,0] delta[B26,B16,1]
 delta[B26,B17,0] delta[B26,B17,1] delta[B26,B18,0] delta[B26,B18,1]
 delta[B26,B19,0] delta[B26,B19,1] delta[B26,B20,0] delta[B26,B20,1]
 delta[B26,B21,0] delta[B26,B21,1] delta[B26,B22,0] delta[B26,B22,1]
 delta[B26,B23,0] delta[B26,B23,1] delta[B26,B24,0] delta[B26,B24,1]
 delta[B26,B25,0] delta[B26,B25,1] delta[B26,B27,0] delta[B26,B27,1]
 delta[B26,B28,0] delta[B26,B28,1] delta[B26,B29,0] delta[B26,B29,1]
 delta[B26,B30,0] delta[B26,B30,1] delta[B26,B31,0] delta[B26,B31,1]
 delta[B26,B32,0] delta[B26,B32,1] delta[B26,B33,0] delta[B26,B33,1]
 delta[B26,B34,0] delta[B26,B34,1] delta[B27,B0,0] delta[B27,B0,1]
 delta[B27,B1,0] delta[B27,B1,1] delta[B27,B2,0] delta[B27,B2,1]
 delta[B27,B3,0] delta[B27,B3,1] delta[B27,B4,0] delta[B27,B4,1]
 delta[B27,B5,0] delta[B27,B5,1] delta[B27,B6,0] delta[B27,B6,1]
 delta[B27,B7,0] delta[B27,B7,1] delta[B27,B8,0] delta[B27,B8,1]
 delta[B27,B9,0] delta[B27,B9,1] delta[B27,B10,0] delta[B27,B10,1]
 delta[B27,B11,0] delta[B27,B11,1] delta[B27,B12,0] delta[B27,B12,1]
 delta[B27,B13,0] delta[B27,B13,1] delta[B27,B14,0] delta[B27,B14,1]
 delta[B27,B15,0] delta[B27,B15,1] delta[B27,B16,0] delta[B27,B16,1]
 delta[B27,B17,0] delta[B27,B17,1] delta[B27,B18,0] delta[B27,B18,1]
 delta[B27,B19,0] delta[B27,B19,1] delta[B27,B20,0] delta[B27,B20,1]
 delta[B27,B21,0] delta[B27,B21,1] delta[B27,B22,0] delta[B27,B22,1]
 delta[B27,B23,0] delta[B27,B23,1] delta[B27,B24,0] delta[B27,B24,1]
 delta[B27,B25,0] delta[B27,B25,1] delta[B27,B26,0] delta[B27,B26,1]
 delta[B27,B28,0] delta[B27,B28,1] delta[B27,B29,0] delta[B27,B29,1]
 delta[B27,B30,0] delta[B27,B30,1] delta[B27,B31,0] delta[B27,B31,1]
 delta[B27,B32,0] delta[B27,B32,1] delta[B27,B33,0] delta[B27,B33,1]
 delta[B27,B34,0] delta[B27,B34,1] delta[B28,B0,0] delta[B28,B0,1]
 delta[B28,B1,0] delta[B28,B1,1] delta[B28,B2,0] delta[B28,B2,1]
 delta[B28,B3,0] delta[B28,B3,1] delta[B28,B4,0] delta[B28,B4,1]
 delta[B28,B5,0] delta[B28,B5,1] delta[B28,B6,0] delta[B28,B6,1]
 delta[B28,B7,0] delta[B28,B7,1] delta[B28,B8,0] delta[B28,B8,1]
 delta[B28,B9,0] delta[B28,B9,1] delta[B28,B10,0] delta[B28,B10,1]
 delta[B28,B11,0] delta[B28,B11,1] delta[B28,B12,0] delta[B28,B12,1]
 delta[B28,B13,0] delta[B28,B13,1] delta[B28,B14,0] delta[B28,B14,1]
 delta[B28,B15,0] delta[B28,B15,1] delta[B28,B16,0] delta[B28,B16,1]
 delta[B28,B17,0] delta[B28,B17,1] delta[B28,B18,0] delta[B28,B18,1]
 delta[B28,B19,0] delta[B28,B19,1] delta[B28,B20,0] delta[B28,B20,1]
 delta[B28,B21,0] delta[B28,B21,1] delta[B28,B22,0] delta[B28,B22,1]
 delta[B28,B23,0] delta[B28,B23,1] delta[B28,B24,0] delta[B28,B24,1]
 delta[B28,B25,0] delta[B28,B25,1] delta[B28,B26,0] delta[B28,B26,1]
 delta[B28,B27,0] delta[B28,B27,1] delta[B28,B29,0] delta[B28,B29,1]
 delta[B28,B30,0] delta[B28,B30,1] delta[B28,B31,0] delta[B28,B31,1]
 delta[B28,B32,0] delta[B28,B32,1] delta[B28,B33,0] delta[B28,B33,1]
 delta[B28,B34,0] delta[B28,B34,1] delta[B29,B0,0] delta[B29,B0,1]
 delta[B29,B1,0] delta[B29,B1,1] delta[B29,B2,0] delta[B29,B2,1]
 delta[B29,B3,0] delta[B29,B3,1] delta[B29,B4,0] delta[B29,B4,1]
 delta[B29,B5,0] delta[B29,B5,1] delta[B29,B6,0] delta[B29,B6,1]
 delta[B29,B7,0] delta[B29,B7,1] delta[B29,B8,0] delta[B29,B8,1]
 delta[B29,B9,0] delta[B29,B9,1] delta[B29,B10,0] delta[B29,B10,1]
 delta[B29,B11,0] delta[B29,B11,1] delta[B29,B12,0] delta[B29,B12,1]
 delta[B29,B13,0] delta[B29,B13,1] delta[B29,B14,0] delta[B29,B14,1]
 delta[B29,B15,0] delta[B29,B15,1] delta[B29,B16,0] delta[B29,B16,1]
 delta[B29,B17,0] delta[B29,B17,1] delta[B29,B18,0] delta[B29,B18,1]
 delta[B29,B19,0] delta[B29,B19,1] delta[B29,B20,0] delta[B29,B20,1]
 delta[B29,B21,0] delta[B29,B21,1] delta[B29,B22,0] delta[B29,B22,1]
 delta[B29,B23,0] delta[B29,B23,1] delta[B29,B24,0] delta[B29,B24,1]
 delta[B29,B25,0] delta[B29,B25,1] delta[B29,B26,0] delta[B29,B26,1]
 delta[B29,B27,0] delta[B29,B27,1] delta[B29,B28,0] delta[B29,B28,1]
 delta[B29,B30,0] delta[B29,B30,1] delta[B29,B31,0] delta[B29,B31,1]
 delta[B29,B32,0] delta[B29,B32,1] delta[B29,B33,0] delta[B29,B33,1]
 delta[B29,B34,0] delta[B29,B34,1] delta[B30,B0,0] delta[B30,B0,1]
 delta[B30,B1,0] delta[B30,B1,1] delta[B30,B2,0] delta[B30,B2,1]
 delta[B30,B3,0] delta[B30,B3,1] delta[B30,B4,0] delta[B30,B4,1]
 delta[B30,B5,0] delta[B30,B5,1] delta[B30,B6,0] delta[B30,B6,1]
 delta[B30,B7,0] delta[B30,B7,1] delta[B30,B8,0] delta[B30,B8,1]
 delta[B30,B9,0] delta[B30,B9,1] delta[B30,B10,0] delta[B30,B10,1]
 delta[B30,B11,0] delta[B30,B11,1] delta[B30,B12,0] delta[B30,B12,1]
 delta[B30,B13,0] delta[B30,B13,1] delta[B30,B14,0] delta[B30,B14,1]
 delta[B30,B15,0] delta[B30,B15,1] delta[B30,B16,0] delta[B30,B16,1]
 delta[B30,B17,0] delta[B30,B17,1] delta[B30,B18,0] delta[B30,B18,1]
 delta[B30,B19,0] delta[B30,B19,1] delta[B30,B20,0] delta[B30,B20,1]
 delta[B30,B21,0] delta[B30,B21,1] delta[B30,B22,0] delta[B30,B22,1]
 delta[B30,B23,0] delta[B30,B23,1] delta[B30,B24,0] delta[B30,B24,1]
 delta[B30,B25,0] delta[B30,B25,1] delta[B30,B26,0] delta[B30,B26,1]
 delta[B30,B27,0] delta[B30,B27,1] delta[B30,B28,0] delta[B30,B28,1]
 delta[B30,B29,0] delta[B30,B29,1] delta[B30,B31,0] delta[B30,B31,1]
 delta[B30,B32,0] delta[B30,B32,1] delta[B30,B33,0] delta[B30,B33,1]
 delta[B30,B34,0] delta[B30,B34,1] delta[B31,B0,0] delta[B31,B0,1]
 delta[B31,B1,0] delta[B31,B1,1] delta[B31,B2,0] delta[B31,B2,1]
 delta[B31,B3,0] delta[B31,B3,1] delta[B31,B4,0] delta[B31,B4,1]
 delta[B31,B5,0] delta[B31,B5,1] delta[B31,B6,0] delta[B31,B6,1]
 delta[B31,B7,0] delta[B31,B7,1] delta[B31,B8,0] delta[B31,B8,1]
 delta[B31,B9,0] delta[B31,B9,1] delta[B31,B10,0] delta[B31,B10,1]
 delta[B31,B11,0] delta[B31,B11,1] delta[B31,B12,0] delta[B31,B12,1]
 delta[B31,B13,0] delta[B31,B13,1] delta[B31,B14,0] delta[B31,B14,1]
 delta[B31,B15,0] delta[B31,B15,1] delta[B31,B16,0] delta[B31,B16,1]
 delta[B31,B17,0] delta[B31,B17,1] delta[B31,B18,0] delta[B31,B18,1]
 delta[B31,B19,0] delta[B31,B19,1] delta[B31,B20,0] delta[B31,B20,1]
 delta[B31,B21,0] delta[B31,B21,1] delta[B31,B22,0] delta[B31,B22,1]
 delta[B31,B23,0] delta[B31,B23,1] delta[B31,B24,0] delta[B31,B24,1]
 delta[B31,B25,0] delta[B31,B25,1] delta[B31,B26,0] delta[B31,B26,1]
 delta[B31,B27,0] delta[B31,B27,1] delta[B31,B28,0] delta[B31,B28,1]
 delta[B31,B29,0] delta[B31,B29,1] delta[B31,B30,0] delta[B31,B30,1]
 delta[B31,B32,0] delta[B31,B32,1] delta[B31,B33,0] delta[B31,B33,1]
 delta[B31,B34,0] delta[B31,B34,1] delta[B32,B0,0] delta[B32,B0,1]
 delta[B32,B1,0] delta[B32,B1,1] delta[B32,B2,0] delta[B32,B2,1]
 delta[B32,B3,0] delta[B32,B3,1] delta[B32,B4,0] delta[B32,B4,1]
 delta[B32,B5,0] delta[B32,B5,1] delta[B32,B6,0] delta[B32,B6,1]
 delta[B32,B7,0] delta[B32,B7,1] delta[B32,B8,0] delta[B32,B8,1]
 delta[B32,B9,0] delta[B32,B9,1] delta[B32,B10,0] delta[B32,B10,1]
 delta[B32,B11,0] delta[B32,B11,1] delta[B32,B12,0] delta[B32,B12,1]
 delta[B32,B13,0] delta[B32,B13,1] delta[B32,B14,0] delta[B32,B14,1]
 delta[B32,B15,0] delta[B32,B15,1] delta[B32,B16,0] delta[B32,B16,1]
 delta[B32,B17,0] delta[B32,B17,1] delta[B32,B18,0] delta[B32,B18,1]
 delta[B32,B19,0] delta[B32,B19,1] delta[B32,B20,0] delta[B32,B20,1]
 delta[B32,B21,0] delta[B32,B21,1] delta[B32,B22,0] delta[B32,B22,1]
 delta[B32,B23,0] delta[B32,B23,1] delta[B32,B24,0] delta[B32,B24,1]
 delta[B32,B25,0] delta[B32,B25,1] delta[B32,B26,0] delta[B32,B26,1]
 delta[B32,B27,0] delta[B32,B27,1] delta[B32,B28,0] delta[B32,B28,1]
 delta[B32,B29,0] delta[B32,B29,1] delta[B32,B30,0] delta[B32,B30,1]
 delta[B32,B31,0] delta[B32,B31,1] delta[B32,B33,0] delta[B32,B33,1]
 delta[B32,B34,0] delta[B32,B34,1] delta[B33,B0,0] delta[B33,B0,1]
 delta[B33,B1,0] delta[B33,B1,1] delta[B33,B2,0] delta[B33,B2,1]
 delta[B33,B3,0] delta[B33,B3,1] delta[B33,B4,0] delta[B33,B4,1]
 delta[B33,B5,0] delta[B33,B5,1] delta[B33,B6,0] delta[B33,B6,1]
 delta[B33,B7,0] delta[B33,B7,1] delta[B33,B8,0] delta[B33,B8,1]
 delta[B33,B9,0] delta[B33,B9,1] delta[B33,B10,0] delta[B33,B10,1]
 delta[B33,B11,0] delta[B33,B11,1] delta[B33,B12,0] delta[B33,B12,1]
 delta[B33,B13,0] delta[B33,B13,1] delta[B33,B14,0] delta[B33,B14,1]
 delta[B33,B15,0] delta[B33,B15,1] delta[B33,B16,0] delta[B33,B16,1]
 delta[B33,B17,0] delta[B33,B17,1] delta[B33,B18,0] delta[B33,B18,1]
 delta[B33,B19,0] delta[B33,B19,1] delta[B33,B20,0] delta[B33,B20,1]
 delta[B33,B21,0] delta[B33,B21,1] delta[B33,B22,0] delta[B33,B22,1]
 delta[B33,B23,0] delta[B33,B23,1] delta[B33,B24,0] delta[B33,B24,1]
 delta[B33,B25,0] delta[B33,B25,1] delta[B33,B26,0] delta[B33,B26,1]
 delta[B33,B27,0] delta[B33,B27,1] delta[B33,B28,0] delta[B33,B28,1]
 delta[B33,B29,0] delta[B33,B29,1] delta[B33,B30,0] delta[B33,B30,1]
 delta[B33,B31,0] delta[B33,B31,1] delta[B33,B32,0] delta[B33,B32,1]
 delta[B33,B34,0] delta[B33,B34,1] delta[B34,B0,0] delta[B34,B0,1]
 delta[B34,B1,0] delta[B34,B1,1] delta[B34,B2,0] delta[B34,B2,1]
 delta[B34,B3,0] delta[B34,B3,1] delta[B34,B4,0] delta[B34,B4,1]
 delta[B34,B5,0] delta[B34,B5,1] delta[B34,B6,0] delta[B34,B6,1]
 delta[B34,B7,0] delta[B34,B7,1] delta[B34,B8,0] delta[B34,B8,1]
 delta[B34,B9,0] delta[B34,B9,1] delta[B34,B10,0] delta[B34,B10,1]
 delta[B34,B11,0] delta[B34,B11,1] delta[B34,B12,0] delta[B34,B12,1]
 delta[B34,B13,0] delta[B34,B13,1] delta[B34,B14,0] delta[B34,B14,1]
 delta[B34,B15,0] delta[B34,B15,1] delta[B34,B16,0] delta[B34,B16,1]
 delta[B34,B17,0] delta[B34,B17,1] delta[B34,B18,0] delta[B34,B18,1]
 delta[B34,B19,0] delta[B34,B19,1] delta[B34,B20,0] delta[B34,B20,1]
 delta[B34,B21,0] delta[B34,B21,1] delta[B34,B22,0] delta[B34,B22,1]
 delta[B34,B23,0] delta[B34,B23,1] delta[B34,B24,0] delta[B34,B24,1]
 delta[B34,B25,0] delta[B34,B25,1] delta[B34,B26,0] delta[B34,B26,1]
 delta[B34,B27,0] delta[B34,B27,1] delta[B34,B28,0] delta[B34,B28,1]
 delta[B34,B29,0] delta[B34,B29,1] delta[B34,B30,0] delta[B34,B30,1]
 delta[B34,B31,0] delta[B34,B31,1] delta[B34,B32,0] delta[B34,B32,1]
 delta[B34,B33,0] delta[B34,B33,1]
End
