\ Model NU-111-StripPacking-50-0
\ LP format - for model browsing. Use MPS format to capture full model detail.
\ Signature: 0x74680fcbb72c81fd
Minimize
  h
Subject To
 Height[B0]: - c[B0,1] + h >= 5.5
 Height[B1]: - c[B1,1] + h >= 6.5
 Height[B2]: - c[B2,1] + h >= 5.5
 Height[B3]: - c[B3,1] + h >= 7.5
 Height[B4]: - c[B4,1] + h >= 15.5
 Height[B5]: - c[B5,1] + h >= 8
 Height[B6]: - c[B6,1] + h >= 4
 Height[B7]: - c[B7,1] + h >= 5
 Height[B8]: - c[B8,1] + h >= 8
 Height[B9]: - c[B9,1] + h >= 4.5
 Height[B10]: - c[B10,1] + h >= 12
 Height[B11]: - c[B11,1] + h >= 5
 Height[B12]: - c[B12,1] + h >= 6
 Height[B13]: - c[B13,1] + h >= 5
 Height[B14]: - c[B14,1] + h >= 6.5
 Height[B15]: - c[B15,1] + h >= 10
 Height[B16]: - c[B16,1] + h >= 10
 Height[B17]: - c[B17,1] + h >= 9.5
 Height[B18]: - c[B18,1] + h >= 3.5
 Height[B19]: - c[B19,1] + h >= 14
 Height[B20]: - c[B20,1] + h >= 5
 Height[B21]: - c[B21,1] + h >= 7
 Height[B22]: - c[B22,1] + h >= 7
 Height[B23]: - c[B23,1] + h >= 16
 Height[B24]: - c[B24,1] + h >= 8.5
 Height[B25]: - c[B25,1] + h >= 13.5
 Height[B26]: - c[B26,1] + h >= 3.5
 Height[B27]: - c[B27,1] + h >= 9.5
 Height[B28]: - c[B28,1] + h >= 6.5
 Height[B29]: - c[B29,1] + h >= 10.5
 Height[B30]: - c[B30,1] + h >= 10
 Height[B31]: - c[B31,1] + h >= 8.5
 Height[B32]: - c[B32,1] + h >= 4.5
 Height[B33]: - c[B33,1] + h >= 9
 Height[B34]: - c[B34,1] + h >= 11.5
 Height[B35]: - c[B35,1] + h >= 4.5
 Height[B36]: - c[B36,1] + h >= 10.5
 Height[B37]: - c[B37,1] + h >= 6.5
 Height[B38]: - c[B38,1] + h >= 6.5
 Height[B39]: - c[B39,1] + h >= 22.5
 Height[B40]: - c[B40,1] + h >= 9
 Height[B41]: - c[B41,1] + h >= 5
 Height[B42]: - c[B42,1] + h >= 14.5
 Height[B43]: - c[B43,1] + h >= 4.5
 Height[B44]: - c[B44,1] + h >= 5
 Height[B45]: - c[B45,1] + h >= 11
 Height[B46]: - c[B46,1] + h >= 6.5
 Height[B47]: - c[B47,1] + h >= 13.5
 Height[B48]: - c[B48,1] + h >= 4.5
 Height[B49]: - c[B49,1] + h >= 5.5
 PM[B0,B1,0]: c[B0,0] - c[B1,0] + 95 delta[B0,B1,0] <= 68.5
 PM[B0,B1,1]: c[B0,1] - c[B1,1] + 10000 delta[B0,B1,1] <= 9988
 PM[B0,B2,0]: c[B0,0] - c[B2,0] + 100 delta[B0,B2,0] <= 87.5
 PM[B0,B2,1]: c[B0,1] - c[B2,1] + 10000 delta[B0,B2,1] <= 9989
 PM[B0,B3,0]: c[B0,0] - c[B3,0] + 95 delta[B0,B3,0] <= 72.5
 PM[B0,B3,1]: c[B0,1] - c[B3,1] + 10000 delta[B0,B3,1] <= 9984
 PM[B0,B4,0]: c[B0,0] - c[B4,0] + 100 delta[B0,B4,0] <= 87.5
 PM[B0,B4,1]: c[B0,1] - c[B4,1] + 10000 delta[B0,B4,1] <= 9988
 PM[B0,B5,0]: c[B0,0] - c[B5,0] + 100 delta[B0,B5,0] <= 87.5
 PM[B0,B5,1]: c[B0,1] - c[B5,1] + 10000 delta[B0,B5,1] <= 9991.5
 PM[B0,B6,0]: c[B0,0] - c[B6,0] + 100 delta[B0,B6,0] <= 83
 PM[B0,B6,1]: c[B0,1] - c[B6,1] + 10000 delta[B0,B6,1] <= 9990.5
 PM[B0,B7,0]: c[B0,0] - c[B7,0] + 95 delta[B0,B7,0] <= 78
 PM[B0,B7,1]: c[B0,1] - c[B7,1] + 10000 delta[B0,B7,1] <= 9990.5
 PM[B0,B8,0]: c[B0,0] - c[B8,0] + 95 delta[B0,B8,0] <= 81
 PM[B0,B8,1]: c[B0,1] - c[B8,1] + 10000 delta[B0,B8,1] <= 9983.5
 PM[B0,B9,0]: c[B0,0] - c[B9,0] + 99 delta[B0,B9,0] <= 84
 PM[B0,B9,1]: c[B0,1] - c[B9,1] + 10000 delta[B0,B9,1] <= 9990
 PM[B0,B10,0]: c[B0,0] - c[B10,0] + 100 delta[B0,B10,0] <= 85.5
 PM[B0,B10,1]: c[B0,1] - c[B10,1] + 10000 delta[B0,B10,1] <= 9989.5
 PM[B0,B11,0]: c[B0,0] - c[B11,0] + 96 delta[B0,B11,0] <= 82
 PM[B0,B11,1]: c[B0,1] - c[B11,1] + 10000 delta[B0,B11,1] <= 9983.5
 PM[B0,B12,0]: c[B0,0] - c[B12,0] + 100 delta[B0,B12,0] <= 81
 PM[B0,B12,1]: c[B0,1] - c[B12,1] + 10000 delta[B0,B12,1] <= 9987.5
 PM[B0,B13,0]: c[B0,0] - c[B13,0] + 97 delta[B0,B13,0] <= 80.5
 PM[B0,B13,1]: c[B0,1] - c[B13,1] + 10000 delta[B0,B13,1] <= 9990.5
 PM[B0,B14,0]: c[B0,0] - c[B14,0] + 98 delta[B0,B14,0] <= 81.5
 PM[B0,B14,1]: c[B0,1] - c[B14,1] + 10000 delta[B0,B14,1] <= 9987
 PM[B0,B15,0]: c[B0,0] - c[B15,0] + 100 delta[B0,B15,0] <= 82.5
 PM[B0,B15,1]: c[B0,1] - c[B15,1] + 10000 delta[B0,B15,1] <= 9978.5
 PM[B0,B16,0]: c[B0,0] - c[B16,0] + 100 delta[B0,B16,0] <= 84
 PM[B0,B16,1]: c[B0,1] - c[B16,1] + 10000 delta[B0,B16,1] <= 9985.5
 PM[B0,B17,0]: c[B0,0] - c[B17,0] + 95 delta[B0,B17,0] <= 74.5
 PM[B0,B17,1]: c[B0,1] - c[B17,1] + 10000 delta[B0,B17,1] <= 9969
 PM[B0,B18,0]: c[B0,0] - c[B18,0] + 96 delta[B0,B18,0] <= 76.5
 PM[B0,B18,1]: c[B0,1] - c[B18,1] + 10000 delta[B0,B18,1] <= 9991
 PM[B0,B19,0]: c[B0,0] - c[B19,0] + 100 delta[B0,B19,0] <= 84
 PM[B0,B19,1]: c[B0,1] - c[B19,1] + 10000 delta[B0,B19,1] <= 9989.5
 PM[B0,B20,0]: c[B0,0] - c[B20,0] + 100 delta[B0,B20,0] <= 82.5
 PM[B0,B20,1]: c[B0,1] - c[B20,1] + 10000 delta[B0,B20,1] <= 9979.5
 PM[B0,B21,0]: c[B0,0] - c[B21,0] + 100 delta[B0,B21,0] <= 79.5
 PM[B0,B21,1]: c[B0,1] - c[B21,1] + 10000 delta[B0,B21,1] <= 9984.5
 PM[B0,B22,0]: c[B0,0] - c[B22,0] + 100 delta[B0,B22,0] <= 86
 PM[B0,B22,1]: c[B0,1] - c[B22,1] + 10000 delta[B0,B22,1] <= 9974.5
 PM[B0,B23,0]: c[B0,0] - c[B23,0] + 100 delta[B0,B23,0] <= 86.5
 PM[B0,B23,1]: c[B0,1] - c[B23,1] + 10000 delta[B0,B23,1] <= 9986.5
 PM[B0,B24,0]: c[B0,0] - c[B24,0] + 95 delta[B0,B24,0] <= 76.5
 PM[B0,B24,1]: c[B0,1] - c[B24,1] + 10000 delta[B0,B24,1] <= 9972
 PM[B0,B25,0]: c[B0,0] - c[B25,0] + 100 delta[B0,B25,0] <= 82.5
 PM[B0,B25,1]: c[B0,1] - c[B25,1] + 10000 delta[B0,B25,1] <= 9990
 PM[B0,B26,0]: c[B0,0] - c[B26,0] + 100 delta[B0,B26,0] <= 87
 PM[B0,B26,1]: c[B0,1] - c[B26,1] + 10000 delta[B0,B26,1] <= 9991
 PM[B0,B27,0]: c[B0,0] - c[B27,0] + 99 delta[B0,B27,0] <= 85.5
 PM[B0,B27,1]: c[B0,1] - c[B27,1] + 10000 delta[B0,B27,1] <= 9983
 PM[B0,B28,0]: c[B0,0] - c[B28,0] + 100 delta[B0,B28,0] <= 82
 PM[B0,B28,1]: c[B0,1] - c[B28,1] + 10000 delta[B0,B28,1] <= 9991
 PM[B0,B29,0]: c[B0,0] - c[B29,0] + 95 delta[B0,B29,0] <= 71.5
 PM[B0,B29,1]: c[B0,1] - c[B29,1] + 10000 delta[B0,B29,1] <= 9980
 PM[B0,B30,0]: c[B0,0] - c[B30,0] + 97 delta[B0,B30,0] <= 84.5
 PM[B0,B30,1]: c[B0,1] - c[B30,1] + 10000 delta[B0,B30,1] <= 9984.5
 PM[B0,B31,0]: c[B0,0] - c[B31,0] + 100 delta[B0,B31,0] <= 81.5
 PM[B0,B31,1]: c[B0,1] - c[B31,1] + 10000 delta[B0,B31,1] <= 9986
 PM[B0,B32,0]: c[B0,0] - c[B32,0] + 95 delta[B0,B32,0] <= 74.5
 PM[B0,B32,1]: c[B0,1] - c[B32,1] + 10000 delta[B0,B32,1] <= 9986
 PM[B0,B33,0]: c[B0,0] - c[B33,0] + 95 delta[B0,B33,0] <= 74
 PM[B0,B33,1]: c[B0,1] - c[B33,1] + 10000 delta[B0,B33,1] <= 9991.5
 PM[B0,B34,0]: c[B0,0] - c[B34,0] + 100 delta[B0,B34,0] <= 88
 PM[B0,B34,1]: c[B0,1] - c[B34,1] + 10000 delta[B0,B34,1] <= 9988
 PM[B0,B35,0]: c[B0,0] - c[B35,0] + 95 delta[B0,B35,0] <= 75.5
 PM[B0,B35,1]: c[B0,1] - c[B35,1] + 10000 delta[B0,B35,1] <= 9981
 PM[B0,B36,0]: c[B0,0] - c[B36,0] + 100 delta[B0,B36,0] <= 85.5
 PM[B0,B36,1]: c[B0,1] - c[B36,1] + 10000 delta[B0,B36,1] <= 9989
 PM[B0,B37,0]: c[B0,0] - c[B37,0] + 95 delta[B0,B37,0] <= 82.5
 PM[B0,B37,1]: c[B0,1] - c[B37,1] + 10000 delta[B0,B37,1] <= 9991
 PM[B0,B38,0]: c[B0,0] - c[B38,0] + 95 delta[B0,B38,0] <= 74
 PM[B0,B38,1]: c[B0,1] - c[B38,1] + 10000 delta[B0,B38,1] <= 9988
 PM[B0,B39,0]: c[B0,0] - c[B39,0] + 95 delta[B0,B39,0] <= 71.5
 PM[B0,B39,1]: c[B0,1] - c[B39,1] + 10000 delta[B0,B39,1] <= 9984
 PM[B0,B40,0]: c[B0,0] - c[B40,0] + 95 delta[B0,B40,0] <= 76.5
 PM[B0,B40,1]: c[B0,1] - c[B40,1] + 10000 delta[B0,B40,1] <= 9991.5
 PM[B0,B41,0]: c[B0,0] - c[B41,0] + 100 delta[B0,B41,0] <= 86
 PM[B0,B41,1]: c[B0,1] - c[B41,1] + 10000 delta[B0,B41,1] <= 9989.5
 PM[B0,B42,0]: c[B0,0] - c[B42,0] + 100 delta[B0,B42,0] <= 83
 PM[B0,B42,1]: c[B0,1] - c[B42,1] + 10000 delta[B0,B42,1] <= 9975
 PM[B0,B43,0]: c[B0,0] - c[B43,0] + 95 delta[B0,B43,0] <= 77.5
 PM[B0,B43,1]: c[B0,1] - c[B43,1] + 10000 delta[B0,B43,1] <= 9984
 PM[B0,B44,0]: c[B0,0] - c[B44,0] + 100 delta[B0,B44,0] <= 82.5
 PM[B0,B44,1]: c[B0,1] - c[B44,1] + 10000 delta[B0,B44,1] <= 9984.5
 PM[B0,B45,0]: c[B0,0] - c[B45,0] + 100 delta[B0,B45,0] <= 85.5
 PM[B0,B45,1]: c[B0,1] - c[B45,1] + 10000 delta[B0,B45,1] <= 9977.5
 PM[B0,B46,0]: c[B0,0] - c[B46,0] + 95 delta[B0,B46,0] <= 78
 PM[B0,B46,1]: c[B0,1] - c[B46,1] + 10000 delta[B0,B46,1] <= 9991
 PM[B0,B47,0]: c[B0,0] - c[B47,0] + 100 delta[B0,B47,0] <= 84.5
 PM[B0,B47,1]: c[B0,1] - c[B47,1] + 10000 delta[B0,B47,1] <= 9989
 PM[B0,B48,0]: c[B0,0] - c[B48,0] + 100 delta[B0,B48,0] <= 83
 PM[B0,B48,1]: c[B0,1] - c[B48,1] + 10000 delta[B0,B48,1] <= 9990
 PM[B0,B49,0]: c[B0,0] - c[B49,0] + 100 delta[B0,B49,0] <= 84.5
 PM[B0,B49,1]: c[B0,1] - c[B49,1] + 10000 delta[B0,B49,1] <= 9987
 PM[B1,B0,0]: - c[B0,0] + c[B1,0] + 100 delta[B1,B0,0] <= 87.5
 PM[B1,B0,1]: - c[B0,1] + c[B1,1] + 10000 delta[B1,B0,1] <= 9982
 PM[B1,B2,0]: c[B1,0] - c[B2,0] + 100 delta[B1,B2,0] <= 89
 PM[B1,B2,1]: c[B1,1] - c[B2,1] + 10000 delta[B1,B2,1] <= 9988
 PM[B1,B3,0]: c[B1,0] - c[B3,0] + 100 delta[B1,B3,0] <= 74
 PM[B1,B3,1]: c[B1,1] - c[B3,1] + 10000 delta[B1,B3,1] <= 9983
 PM[B1,B4,0]: c[B1,0] - c[B4,0] + 100 delta[B1,B4,0] <= 89
 PM[B1,B4,1]: c[B1,1] - c[B4,1] + 10000 delta[B1,B4,1] <= 9987
 PM[B1,B5,0]: c[B1,0] - c[B5,0] + 100 delta[B1,B5,0] <= 89
 PM[B1,B5,1]: c[B1,1] - c[B5,1] + 10000 delta[B1,B5,1] <= 9990.5
 PM[B1,B6,0]: c[B1,0] - c[B6,0] + 100 delta[B1,B6,0] <= 84.5
 PM[B1,B6,1]: c[B1,1] - c[B6,1] + 10000 delta[B1,B6,1] <= 9989.5
 PM[B1,B7,0]: c[B1,0] - c[B7,0] + 100 delta[B1,B7,0] <= 79.5
 PM[B1,B7,1]: c[B1,1] - c[B7,1] + 10000 delta[B1,B7,1] <= 9989.5
 PM[B1,B8,0]: c[B1,0] - c[B8,0] + 100 delta[B1,B8,0] <= 82.5
 PM[B1,B8,1]: c[B1,1] - c[B8,1] + 10000 delta[B1,B8,1] <= 9982.5
 PM[B1,B9,0]: c[B1,0] - c[B9,0] + 100 delta[B1,B9,0] <= 85.5
 PM[B1,B9,1]: c[B1,1] - c[B9,1] + 10000 delta[B1,B9,1] <= 9989
 PM[B1,B10,0]: c[B1,0] - c[B10,0] + 100 delta[B1,B10,0] <= 87
 PM[B1,B10,1]: c[B1,1] - c[B10,1] + 10000 delta[B1,B10,1] <= 9988.5
 PM[B1,B11,0]: c[B1,0] - c[B11,0] + 100 delta[B1,B11,0] <= 83.5
 PM[B1,B11,1]: c[B1,1] - c[B11,1] + 10000 delta[B1,B11,1] <= 9982.5
 PM[B1,B12,0]: c[B1,0] - c[B12,0] + 100 delta[B1,B12,0] <= 82.5
 PM[B1,B12,1]: c[B1,1] - c[B12,1] + 10000 delta[B1,B12,1] <= 9986.5
 PM[B1,B13,0]: c[B1,0] - c[B13,0] + 100 delta[B1,B13,0] <= 82
 PM[B1,B13,1]: c[B1,1] - c[B13,1] + 10000 delta[B1,B13,1] <= 9989.5
 PM[B1,B14,0]: c[B1,0] - c[B14,0] + 100 delta[B1,B14,0] <= 83
 PM[B1,B14,1]: c[B1,1] - c[B14,1] + 10000 delta[B1,B14,1] <= 9986
 PM[B1,B15,0]: c[B1,0] - c[B15,0] + 100 delta[B1,B15,0] <= 84
 PM[B1,B15,1]: c[B1,1] - c[B15,1] + 10000 delta[B1,B15,1] <= 9977.5
 PM[B1,B16,0]: c[B1,0] - c[B16,0] + 100 delta[B1,B16,0] <= 85.5
 PM[B1,B16,1]: c[B1,1] - c[B16,1] + 10000 delta[B1,B16,1] <= 9984.5
 PM[B1,B17,0]: c[B1,0] - c[B17,0] + 100 delta[B1,B17,0] <= 76
 PM[B1,B17,1]: c[B1,1] - c[B17,1] + 10000 delta[B1,B17,1] <= 9968
 PM[B1,B18,0]: c[B1,0] - c[B18,0] + 100 delta[B1,B18,0] <= 78
 PM[B1,B18,1]: c[B1,1] - c[B18,1] + 10000 delta[B1,B18,1] <= 9990
 PM[B1,B19,0]: c[B1,0] - c[B19,0] + 100 delta[B1,B19,0] <= 85.5
 PM[B1,B19,1]: c[B1,1] - c[B19,1] + 10000 delta[B1,B19,1] <= 9988.5
 PM[B1,B20,0]: c[B1,0] - c[B20,0] + 100 delta[B1,B20,0] <= 84
 PM[B1,B20,1]: c[B1,1] - c[B20,1] + 10000 delta[B1,B20,1] <= 9978.5
 PM[B1,B21,0]: c[B1,0] - c[B21,0] + 100 delta[B1,B21,0] <= 81
 PM[B1,B21,1]: c[B1,1] - c[B21,1] + 10000 delta[B1,B21,1] <= 9983.5
 PM[B1,B22,0]: c[B1,0] - c[B22,0] + 100 delta[B1,B22,0] <= 87.5
 PM[B1,B22,1]: c[B1,1] - c[B22,1] + 10000 delta[B1,B22,1] <= 9973.5
 PM[B1,B23,0]: c[B1,0] - c[B23,0] + 100 delta[B1,B23,0] <= 88
 PM[B1,B23,1]: c[B1,1] - c[B23,1] + 10000 delta[B1,B23,1] <= 9985.5
 PM[B1,B24,0]: c[B1,0] - c[B24,0] + 100 delta[B1,B24,0] <= 78
 PM[B1,B24,1]: c[B1,1] - c[B24,1] + 10000 delta[B1,B24,1] <= 9971
 PM[B1,B25,0]: c[B1,0] - c[B25,0] + 100 delta[B1,B25,0] <= 84
 PM[B1,B25,1]: c[B1,1] - c[B25,1] + 10000 delta[B1,B25,1] <= 9989
 PM[B1,B26,0]: c[B1,0] - c[B26,0] + 100 delta[B1,B26,0] <= 88.5
 PM[B1,B26,1]: c[B1,1] - c[B26,1] + 10000 delta[B1,B26,1] <= 9990
 PM[B1,B27,0]: c[B1,0] - c[B27,0] + 100 delta[B1,B27,0] <= 87
 PM[B1,B27,1]: c[B1,1] - c[B27,1] + 10000 delta[B1,B27,1] <= 9982
 PM[B1,B28,0]: c[B1,0] - c[B28,0] + 100 delta[B1,B28,0] <= 83.5
 PM[B1,B28,1]: c[B1,1] - c[B28,1] + 10000 delta[B1,B28,1] <= 9990
 PM[B1,B29,0]: c[B1,0] - c[B29,0] + 100 delta[B1,B29,0] <= 73
 PM[B1,B29,1]: c[B1,1] - c[B29,1] + 10000 delta[B1,B29,1] <= 9979
 PM[B1,B30,0]: c[B1,0] - c[B30,0] + 100 delta[B1,B30,0] <= 86
 PM[B1,B30,1]: c[B1,1] - c[B30,1] + 10000 delta[B1,B30,1] <= 9983.5
 PM[B1,B31,0]: c[B1,0] - c[B31,0] + 100 delta[B1,B31,0] <= 83
 PM[B1,B31,1]: c[B1,1] - c[B31,1] + 10000 delta[B1,B31,1] <= 9985
 PM[B1,B32,0]: c[B1,0] - c[B32,0] + 100 delta[B1,B32,0] <= 76
 PM[B1,B32,1]: c[B1,1] - c[B32,1] + 10000 delta[B1,B32,1] <= 9985
 PM[B1,B33,0]: c[B1,0] - c[B33,0] + 100 delta[B1,B33,0] <= 75.5
 PM[B1,B33,1]: c[B1,1] - c[B33,1] + 10000 delta[B1,B33,1] <= 9990.5
 PM[B1,B34,0]: c[B1,0] - c[B34,0] + 100 delta[B1,B34,0] <= 89.5
 PM[B1,B34,1]: c[B1,1] - c[B34,1] + 10000 delta[B1,B34,1] <= 9987
 PM[B1,B35,0]: c[B1,0] - c[B35,0] + 100 delta[B1,B35,0] <= 77
 PM[B1,B35,1]: c[B1,1] - c[B35,1] + 10000 delta[B1,B35,1] <= 9980
 PM[B1,B36,0]: c[B1,0] - c[B36,0] + 100 delta[B1,B36,0] <= 87
 PM[B1,B36,1]: c[B1,1] - c[B36,1] + 10000 delta[B1,B36,1] <= 9988
 PM[B1,B37,0]: c[B1,0] - c[B37,0] + 100 delta[B1,B37,0] <= 84
 PM[B1,B37,1]: c[B1,1] - c[B37,1] + 10000 delta[B1,B37,1] <= 9990
 PM[B1,B38,0]: c[B1,0] - c[B38,0] + 100 delta[B1,B38,0] <= 75.5
 PM[B1,B38,1]: c[B1,1] - c[B38,1] + 10000 delta[B1,B38,1] <= 9987
 PM[B1,B39,0]: c[B1,0] - c[B39,0] + 100 delta[B1,B39,0] <= 73
 PM[B1,B39,1]: c[B1,1] - c[B39,1] + 10000 delta[B1,B39,1] <= 9983
 PM[B1,B40,0]: c[B1,0] - c[B40,0] + 100 delta[B1,B40,0] <= 78
 PM[B1,B40,1]: c[B1,1] - c[B40,1] + 10000 delta[B1,B40,1] <= 9990.5
 PM[B1,B41,0]: c[B1,0] - c[B41,0] + 100 delta[B1,B41,0] <= 87.5
 PM[B1,B41,1]: c[B1,1] - c[B41,1] + 10000 delta[B1,B41,1] <= 9988.5
 PM[B1,B42,0]: c[B1,0] - c[B42,0] + 100 delta[B1,B42,0] <= 84.5
 PM[B1,B42,1]: c[B1,1] - c[B42,1] + 10000 delta[B1,B42,1] <= 9974
 PM[B1,B43,0]: c[B1,0] - c[B43,0] + 100 delta[B1,B43,0] <= 79
 PM[B1,B43,1]: c[B1,1] - c[B43,1] + 10000 delta[B1,B43,1] <= 9983
 PM[B1,B44,0]: c[B1,0] - c[B44,0] + 100 delta[B1,B44,0] <= 84
 PM[B1,B44,1]: c[B1,1] - c[B44,1] + 10000 delta[B1,B44,1] <= 9983.5
 PM[B1,B45,0]: c[B1,0] - c[B45,0] + 100 delta[B1,B45,0] <= 87
 PM[B1,B45,1]: c[B1,1] - c[B45,1] + 10000 delta[B1,B45,1] <= 9976.5
 PM[B1,B46,0]: c[B1,0] - c[B46,0] + 100 delta[B1,B46,0] <= 79.5
 PM[B1,B46,1]: c[B1,1] - c[B46,1] + 10000 delta[B1,B46,1] <= 9990
 PM[B1,B47,0]: c[B1,0] - c[B47,0] + 100 delta[B1,B47,0] <= 86
 PM[B1,B47,1]: c[B1,1] - c[B47,1] + 10000 delta[B1,B47,1] <= 9988
 PM[B1,B48,0]: c[B1,0] - c[B48,0] + 100 delta[B1,B48,0] <= 84.5
 PM[B1,B48,1]: c[B1,1] - c[B48,1] + 10000 delta[B1,B48,1] <= 9989
 PM[B1,B49,0]: c[B1,0] - c[B49,0] + 100 delta[B1,B49,0] <= 86
 PM[B1,B49,1]: c[B1,1] - c[B49,1] + 10000 delta[B1,B49,1] <= 9986
 PM[B2,B0,0]: - c[B0,0] + c[B2,0] + 100 delta[B2,B0,0] <= 88.5
 PM[B2,B0,1]: - c[B0,1] + c[B2,1] + 10000 delta[B2,B0,1] <= 9983
 PM[B2,B1,0]: - c[B1,0] + c[B2,0] + 96 delta[B2,B1,0] <= 71
 PM[B2,B1,1]: - c[B1,1] + c[B2,1] + 10000 delta[B2,B1,1] <= 9988
 PM[B2,B3,0]: c[B2,0] - c[B3,0] + 96 delta[B2,B3,0] <= 75
 PM[B2,B3,1]: c[B2,1] - c[B3,1] + 10000 delta[B2,B3,1] <= 9984
 PM[B2,B4,0]: c[B2,0] - c[B4,0] + 100 delta[B2,B4,0] <= 90
 PM[B2,B4,1]: c[B2,1] - c[B4,1] + 10000 delta[B2,B4,1] <= 9988
 PM[B2,B5,0]: c[B2,0] - c[B5,0] + 100 delta[B2,B5,0] <= 90
 PM[B2,B5,1]: c[B2,1] - c[B5,1] + 10000 delta[B2,B5,1] <= 9991.5
 PM[B2,B6,0]: c[B2,0] - c[B6,0] + 100 delta[B2,B6,0] <= 85.5
 PM[B2,B6,1]: c[B2,1] - c[B6,1] + 10000 delta[B2,B6,1] <= 9990.5
 PM[B2,B7,0]: c[B2,0] - c[B7,0] + 96 delta[B2,B7,0] <= 80.5
 PM[B2,B7,1]: c[B2,1] - c[B7,1] + 10000 delta[B2,B7,1] <= 9990.5
 PM[B2,B8,0]: c[B2,0] - c[B8,0] + 96 delta[B2,B8,0] <= 83.5
 PM[B2,B8,1]: c[B2,1] - c[B8,1] + 10000 delta[B2,B8,1] <= 9983.5
 PM[B2,B9,0]: c[B2,0] - c[B9,0] + 99 delta[B2,B9,0] <= 86.5
 PM[B2,B9,1]: c[B2,1] - c[B9,1] + 10000 delta[B2,B9,1] <= 9990
 PM[B2,B10,0]: c[B2,0] - c[B10,0] + 100 delta[B2,B10,0] <= 88
 PM[B2,B10,1]: c[B2,1] - c[B10,1] + 10000 delta[B2,B10,1] <= 9989.5
 PM[B2,B11,0]: c[B2,0] - c[B11,0] + 96 delta[B2,B11,0] <= 84.5
 PM[B2,B11,1]: c[B2,1] - c[B11,1] + 10000 delta[B2,B11,1] <= 9983.5
 PM[B2,B12,0]: c[B2,0] - c[B12,0] + 100 delta[B2,B12,0] <= 83.5
 PM[B2,B12,1]: c[B2,1] - c[B12,1] + 10000 delta[B2,B12,1] <= 9987.5
 PM[B2,B13,0]: c[B2,0] - c[B13,0] + 97 delta[B2,B13,0] <= 83
 PM[B2,B13,1]: c[B2,1] - c[B13,1] + 10000 delta[B2,B13,1] <= 9990.5
 PM[B2,B14,0]: c[B2,0] - c[B14,0] + 98 delta[B2,B14,0] <= 84
 PM[B2,B14,1]: c[B2,1] - c[B14,1] + 10000 delta[B2,B14,1] <= 9987
 PM[B2,B15,0]: c[B2,0] - c[B15,0] + 100 delta[B2,B15,0] <= 85
 PM[B2,B15,1]: c[B2,1] - c[B15,1] + 10000 delta[B2,B15,1] <= 9978.5
 PM[B2,B16,0]: c[B2,0] - c[B16,0] + 100 delta[B2,B16,0] <= 86.5
 PM[B2,B16,1]: c[B2,1] - c[B16,1] + 10000 delta[B2,B16,1] <= 9985.5
 PM[B2,B17,0]: c[B2,0] - c[B17,0] + 96 delta[B2,B17,0] <= 77
 PM[B2,B17,1]: c[B2,1] - c[B17,1] + 10000 delta[B2,B17,1] <= 9969
 PM[B2,B18,0]: c[B2,0] - c[B18,0] + 96 delta[B2,B18,0] <= 79
 PM[B2,B18,1]: c[B2,1] - c[B18,1] + 10000 delta[B2,B18,1] <= 9991
 PM[B2,B19,0]: c[B2,0] - c[B19,0] + 100 delta[B2,B19,0] <= 86.5
 PM[B2,B19,1]: c[B2,1] - c[B19,1] + 10000 delta[B2,B19,1] <= 9989.5
 PM[B2,B20,0]: c[B2,0] - c[B20,0] + 100 delta[B2,B20,0] <= 85
 PM[B2,B20,1]: c[B2,1] - c[B20,1] + 10000 delta[B2,B20,1] <= 9979.5
 PM[B2,B21,0]: c[B2,0] - c[B21,0] + 100 delta[B2,B21,0] <= 82
 PM[B2,B21,1]: c[B2,1] - c[B21,1] + 10000 delta[B2,B21,1] <= 9984.5
 PM[B2,B22,0]: c[B2,0] - c[B22,0] + 100 delta[B2,B22,0] <= 88.5
 PM[B2,B22,1]: c[B2,1] - c[B22,1] + 10000 delta[B2,B22,1] <= 9974.5
 PM[B2,B23,0]: c[B2,0] - c[B23,0] + 100 delta[B2,B23,0] <= 89
 PM[B2,B23,1]: c[B2,1] - c[B23,1] + 10000 delta[B2,B23,1] <= 9986.5
 PM[B2,B24,0]: c[B2,0] - c[B24,0] + 96 delta[B2,B24,0] <= 79
 PM[B2,B24,1]: c[B2,1] - c[B24,1] + 10000 delta[B2,B24,1] <= 9972
 PM[B2,B25,0]: c[B2,0] - c[B25,0] + 100 delta[B2,B25,0] <= 85
 PM[B2,B25,1]: c[B2,1] - c[B25,1] + 10000 delta[B2,B25,1] <= 9990
 PM[B2,B26,0]: c[B2,0] - c[B26,0] + 100 delta[B2,B26,0] <= 89.5
 PM[B2,B26,1]: c[B2,1] - c[B26,1] + 10000 delta[B2,B26,1] <= 9991
 PM[B2,B27,0]: c[B2,0] - c[B27,0] + 99 delta[B2,B27,0] <= 88
 PM[B2,B27,1]: c[B2,1] - c[B27,1] + 10000 delta[B2,B27,1] <= 9983
 PM[B2,B28,0]: c[B2,0] - c[B28,0] + 100 delta[B2,B28,0] <= 84.5
 PM[B2,B28,1]: c[B2,1] - c[B28,1] + 10000 delta[B2,B28,1] <= 9991
 PM[B2,B29,0]: c[B2,0] - c[B29,0] + 96 delta[B2,B29,0] <= 74
 PM[B2,B29,1]: c[B2,1] - c[B29,1] + 10000 delta[B2,B29,1] <= 9980
 PM[B2,B30,0]: c[B2,0] - c[B30,0] + 97 delta[B2,B30,0] <= 87
 PM[B2,B30,1]: c[B2,1] - c[B30,1] + 10000 delta[B2,B30,1] <= 9984.5
 PM[B2,B31,0]: c[B2,0] - c[B31,0] + 100 delta[B2,B31,0] <= 84
 PM[B2,B31,1]: c[B2,1] - c[B31,1] + 10000 delta[B2,B31,1] <= 9986
 PM[B2,B32,0]: c[B2,0] - c[B32,0] + 96 delta[B2,B32,0] <= 77
 PM[B2,B32,1]: c[B2,1] - c[B32,1] + 10000 delta[B2,B32,1] <= 9986
 PM[B2,B33,0]: c[B2,0] - c[B33,0] + 96 delta[B2,B33,0] <= 76.5
 PM[B2,B33,1]: c[B2,1] - c[B33,1] + 10000 delta[B2,B33,1] <= 9991.5
 PM[B2,B34,0]: c[B2,0] - c[B34,0] + 100 delta[B2,B34,0] <= 90.5
 PM[B2,B34,1]: c[B2,1] - c[B34,1] + 10000 delta[B2,B34,1] <= 9988
 PM[B2,B35,0]: c[B2,0] - c[B35,0] + 96 delta[B2,B35,0] <= 78
 PM[B2,B35,1]: c[B2,1] - c[B35,1] + 10000 delta[B2,B35,1] <= 9981
 PM[B2,B36,0]: c[B2,0] - c[B36,0] + 100 delta[B2,B36,0] <= 88
 PM[B2,B36,1]: c[B2,1] - c[B36,1] + 10000 delta[B2,B36,1] <= 9989
 PM[B2,B37,0]: c[B2,0] - c[B37,0] + 96 delta[B2,B37,0] <= 85
 PM[B2,B37,1]: c[B2,1] - c[B37,1] + 10000 delta[B2,B37,1] <= 9991
 PM[B2,B38,0]: c[B2,0] - c[B38,0] + 96 delta[B2,B38,0] <= 76.5
 PM[B2,B38,1]: c[B2,1] - c[B38,1] + 10000 delta[B2,B38,1] <= 9988
 PM[B2,B39,0]: c[B2,0] - c[B39,0] + 96 delta[B2,B39,0] <= 74
 PM[B2,B39,1]: c[B2,1] - c[B39,1] + 10000 delta[B2,B39,1] <= 9984
 PM[B2,B40,0]: c[B2,0] - c[B40,0] + 96 delta[B2,B40,0] <= 79
 PM[B2,B40,1]: c[B2,1] - c[B40,1] + 10000 delta[B2,B40,1] <= 9991.5
 PM[B2,B41,0]: c[B2,0] - c[B41,0] + 100 delta[B2,B41,0] <= 88.5
 PM[B2,B41,1]: c[B2,1] - c[B41,1] + 10000 delta[B2,B41,1] <= 9989.5
 PM[B2,B42,0]: c[B2,0] - c[B42,0] + 100 delta[B2,B42,0] <= 85.5
 PM[B2,B42,1]: c[B2,1] - c[B42,1] + 10000 delta[B2,B42,1] <= 9975
 PM[B2,B43,0]: c[B2,0] - c[B43,0] + 96 delta[B2,B43,0] <= 80
 PM[B2,B43,1]: c[B2,1] - c[B43,1] + 10000 delta[B2,B43,1] <= 9984
 PM[B2,B44,0]: c[B2,0] - c[B44,0] + 100 delta[B2,B44,0] <= 85
 PM[B2,B44,1]: c[B2,1] - c[B44,1] + 10000 delta[B2,B44,1] <= 9984.5
 PM[B2,B45,0]: c[B2,0] - c[B45,0] + 100 delta[B2,B45,0] <= 88
 PM[B2,B45,1]: c[B2,1] - c[B45,1] + 10000 delta[B2,B45,1] <= 9977.5
 PM[B2,B46,0]: c[B2,0] - c[B46,0] + 96 delta[B2,B46,0] <= 80.5
 PM[B2,B46,1]: c[B2,1] - c[B46,1] + 10000 delta[B2,B46,1] <= 9991
 PM[B2,B47,0]: c[B2,0] - c[B47,0] + 100 delta[B2,B47,0] <= 87
 PM[B2,B47,1]: c[B2,1] - c[B47,1] + 10000 delta[B2,B47,1] <= 9989
 PM[B2,B48,0]: c[B2,0] - c[B48,0] + 100 delta[B2,B48,0] <= 85.5
 PM[B2,B48,1]: c[B2,1] - c[B48,1] + 10000 delta[B2,B48,1] <= 9990
 PM[B2,B49,0]: c[B2,0] - c[B49,0] + 100 delta[B2,B49,0] <= 87
 PM[B2,B49,1]: c[B2,1] - c[B49,1] + 10000 delta[B2,B49,1] <= 9987
 PM[B3,B0,0]: - c[B0,0] + c[B3,0] + 100 delta[B3,B0,0] <= 73.5
 PM[B3,B0,1]: - c[B0,1] + c[B3,1] + 9999 delta[B3,B0,1] <= 9981
 PM[B3,B1,0]: - c[B1,0] + c[B3,0] + 86 delta[B3,B1,0] <= 56
 PM[B3,B1,1]: - c[B1,1] + c[B3,1] + 10000 delta[B3,B1,1] <= 9986
 PM[B3,B2,0]: - c[B2,0] + c[B3,0] + 100 delta[B3,B2,0] <= 75
 PM[B3,B2,1]: - c[B2,1] + c[B3,1] + 10000 delta[B3,B2,1] <= 9987
 PM[B3,B4,0]: c[B3,0] - c[B4,0] + 100 delta[B3,B4,0] <= 75
 PM[B3,B4,1]: c[B3,1] - c[B4,1] + 10000 delta[B3,B4,1] <= 9986
 PM[B3,B5,0]: c[B3,0] - c[B5,0] + 100 delta[B3,B5,0] <= 75
 PM[B3,B5,1]: c[B3,1] - c[B5,1] + 10000 delta[B3,B5,1] <= 9989.5
 PM[B3,B6,0]: c[B3,0] - c[B6,0] + 100 delta[B3,B6,0] <= 70.5
 PM[B3,B6,1]: c[B3,1] - c[B6,1] + 10000 delta[B3,B6,1] <= 9988.5
 PM[B3,B7,0]: c[B3,0] - c[B7,0] + 95 delta[B3,B7,0] <= 65.5
 PM[B3,B7,1]: c[B3,1] - c[B7,1] + 10000 delta[B3,B7,1] <= 9988.5
 PM[B3,B8,0]: c[B3,0] - c[B8,0] + 94 delta[B3,B8,0] <= 68.5
 PM[B3,B8,1]: c[B3,1] - c[B8,1] + 9999 delta[B3,B8,1] <= 9981.5
 PM[B3,B9,0]: c[B3,0] - c[B9,0] + 99 delta[B3,B9,0] <= 71.5
 PM[B3,B9,1]: c[B3,1] - c[B9,1] + 10000 delta[B3,B9,1] <= 9988
 PM[B3,B10,0]: c[B3,0] - c[B10,0] + 100 delta[B3,B10,0] <= 73
 PM[B3,B10,1]: c[B3,1] - c[B10,1] + 10000 delta[B3,B10,1] <= 9987.5
 PM[B3,B11,0]: c[B3,0] - c[B11,0] + 96 delta[B3,B11,0] <= 69.5
 PM[B3,B11,1]: c[B3,1] - c[B11,1] + 9999 delta[B3,B11,1] <= 9981.5
 PM[B3,B12,0]: c[B3,0] - c[B12,0] + 100 delta[B3,B12,0] <= 68.5
 PM[B3,B12,1]: c[B3,1] - c[B12,1] + 9999 delta[B3,B12,1] <= 9985.5
 PM[B3,B13,0]: c[B3,0] - c[B13,0] + 97 delta[B3,B13,0] <= 68
 PM[B3,B13,1]: c[B3,1] - c[B13,1] + 10000 delta[B3,B13,1] <= 9988.5
 PM[B3,B14,0]: c[B3,0] - c[B14,0] + 98 delta[B3,B14,0] <= 69
 PM[B3,B14,1]: c[B3,1] - c[B14,1] + 9999 delta[B3,B14,1] <= 9985
 PM[B3,B15,0]: c[B3,0] - c[B15,0] + 100 delta[B3,B15,0] <= 70
 PM[B3,B15,1]: c[B3,1] - c[B15,1] + 9999 delta[B3,B15,1] <= 9976.5
 PM[B3,B16,0]: c[B3,0] - c[B16,0] + 100 delta[B3,B16,0] <= 71.5
 PM[B3,B16,1]: c[B3,1] - c[B16,1] + 9999 delta[B3,B16,1] <= 9983.5
 PM[B3,B17,0]: c[B3,0] - c[B17,0] + 91 delta[B3,B17,0] <= 62
 PM[B3,B17,1]: c[B3,1] - c[B17,1] + 9999 delta[B3,B17,1] <= 9967
 PM[B3,B18,0]: c[B3,0] - c[B18,0] + 96 delta[B3,B18,0] <= 64
 PM[B3,B18,1]: c[B3,1] - c[B18,1] + 10000 delta[B3,B18,1] <= 9989
 PM[B3,B19,0]: c[B3,0] - c[B19,0] + 100 delta[B3,B19,0] <= 71.5
 PM[B3,B19,1]: c[B3,1] - c[B19,1] + 10000 delta[B3,B19,1] <= 9987.5
 PM[B3,B20,0]: c[B3,0] - c[B20,0] + 100 delta[B3,B20,0] <= 70
 PM[B3,B20,1]: c[B3,1] - c[B20,1] + 9999 delta[B3,B20,1] <= 9977.5
 PM[B3,B21,0]: c[B3,0] - c[B21,0] + 100 delta[B3,B21,0] <= 67
 PM[B3,B21,1]: c[B3,1] - c[B21,1] + 9999 delta[B3,B21,1] <= 9982.5
 PM[B3,B22,0]: c[B3,0] - c[B22,0] + 100 delta[B3,B22,0] <= 73.5
 PM[B3,B22,1]: c[B3,1] - c[B22,1] + 9999 delta[B3,B22,1] <= 9972.5
 PM[B3,B23,0]: c[B3,0] - c[B23,0] + 100 delta[B3,B23,0] <= 74
 PM[B3,B23,1]: c[B3,1] - c[B23,1] + 10000 delta[B3,B23,1] <= 9984.5
 PM[B3,B24,0]: c[B3,0] - c[B24,0] + 91 delta[B3,B24,0] <= 64
 PM[B3,B24,1]: c[B3,1] - c[B24,1] + 9999 delta[B3,B24,1] <= 9970
 PM[B3,B25,0]: c[B3,0] - c[B25,0] + 100 delta[B3,B25,0] <= 70
 PM[B3,B25,1]: c[B3,1] - c[B25,1] + 10000 delta[B3,B25,1] <= 9988
 PM[B3,B26,0]: c[B3,0] - c[B26,0] + 100 delta[B3,B26,0] <= 74.5
 PM[B3,B26,1]: c[B3,1] - c[B26,1] + 10000 delta[B3,B26,1] <= 9989
 PM[B3,B27,0]: c[B3,0] - c[B27,0] + 99 delta[B3,B27,0] <= 73
 PM[B3,B27,1]: c[B3,1] - c[B27,1] + 9999 delta[B3,B27,1] <= 9981
 PM[B3,B28,0]: c[B3,0] - c[B28,0] + 100 delta[B3,B28,0] <= 69.5
 PM[B3,B28,1]: c[B3,1] - c[B28,1] + 10000 delta[B3,B28,1] <= 9989
 PM[B3,B29,0]: c[B3,0] - c[B29,0] + 89 delta[B3,B29,0] <= 59
 PM[B3,B29,1]: c[B3,1] - c[B29,1] + 9999 delta[B3,B29,1] <= 9978
 PM[B3,B30,0]: c[B3,0] - c[B30,0] + 97 delta[B3,B30,0] <= 72
 PM[B3,B30,1]: c[B3,1] - c[B30,1] + 10000 delta[B3,B30,1] <= 9982.5
 PM[B3,B31,0]: c[B3,0] - c[B31,0] + 100 delta[B3,B31,0] <= 69
 PM[B3,B31,1]: c[B3,1] - c[B31,1] + 10000 delta[B3,B31,1] <= 9984
 PM[B3,B32,0]: c[B3,0] - c[B32,0] + 90 delta[B3,B32,0] <= 62
 PM[B3,B32,1]: c[B3,1] - c[B32,1] + 9999 delta[B3,B32,1] <= 9984
 PM[B3,B33,0]: c[B3,0] - c[B33,0] + 91 delta[B3,B33,0] <= 61.5
 PM[B3,B33,1]: c[B3,1] - c[B33,1] + 10000 delta[B3,B33,1] <= 9989.5
 PM[B3,B34,0]: c[B3,0] - c[B34,0] + 100 delta[B3,B34,0] <= 75.5
 PM[B3,B34,1]: c[B3,1] - c[B34,1] + 10000 delta[B3,B34,1] <= 9986
 PM[B3,B35,0]: c[B3,0] - c[B35,0] + 91 delta[B3,B35,0] <= 63
 PM[B3,B35,1]: c[B3,1] - c[B35,1] + 9999 delta[B3,B35,1] <= 9979
 PM[B3,B36,0]: c[B3,0] - c[B36,0] + 100 delta[B3,B36,0] <= 73
 PM[B3,B36,1]: c[B3,1] - c[B36,1] + 10000 delta[B3,B36,1] <= 9987
 PM[B3,B37,0]: c[B3,0] - c[B37,0] + 95 delta[B3,B37,0] <= 70
 PM[B3,B37,1]: c[B3,1] - c[B37,1] + 10000 delta[B3,B37,1] <= 9989
 PM[B3,B38,0]: c[B3,0] - c[B38,0] + 92 delta[B3,B38,0] <= 61.5
 PM[B3,B38,1]: c[B3,1] - c[B38,1] + 10000 delta[B3,B38,1] <= 9986
 PM[B3,B39,0]: c[B3,0] - c[B39,0] + 90 delta[B3,B39,0] <= 59
 PM[B3,B39,1]: c[B3,1] - c[B39,1] + 10000 delta[B3,B39,1] <= 9982
 PM[B3,B40,0]: c[B3,0] - c[B40,0] + 91 delta[B3,B40,0] <= 64
 PM[B3,B40,1]: c[B3,1] - c[B40,1] + 10000 delta[B3,B40,1] <= 9989.5
 PM[B3,B41,0]: c[B3,0] - c[B41,0] + 100 delta[B3,B41,0] <= 73.5
 PM[B3,B41,1]: c[B3,1] - c[B41,1] + 10000 delta[B3,B41,1] <= 9987.5
 PM[B3,B42,0]: c[B3,0] - c[B42,0] + 100 delta[B3,B42,0] <= 70.5
 PM[B3,B42,1]: c[B3,1] - c[B42,1] + 9999 delta[B3,B42,1] <= 9973
 PM[B3,B43,0]: c[B3,0] - c[B43,0] + 95 delta[B3,B43,0] <= 65
 PM[B3,B43,1]: c[B3,1] - c[B43,1] + 9999 delta[B3,B43,1] <= 9982
 PM[B3,B44,0]: c[B3,0] - c[B44,0] + 100 delta[B3,B44,0] <= 70
 PM[B3,B44,1]: c[B3,1] - c[B44,1] + 9999 delta[B3,B44,1] <= 9982.5
 PM[B3,B45,0]: c[B3,0] - c[B45,0] + 100 delta[B3,B45,0] <= 73
 PM[B3,B45,1]: c[B3,1] - c[B45,1] + 9999 delta[B3,B45,1] <= 9975.5
 PM[B3,B46,0]: c[B3,0] - c[B46,0] + 92 delta[B3,B46,0] <= 65.5
 PM[B3,B46,1]: c[B3,1] - c[B46,1] + 10000 delta[B3,B46,1] <= 9989
 PM[B3,B47,0]: c[B3,0] - c[B47,0] + 100 delta[B3,B47,0] <= 72
 PM[B3,B47,1]: c[B3,1] - c[B47,1] + 10000 delta[B3,B47,1] <= 9987
 PM[B3,B48,0]: c[B3,0] - c[B48,0] + 100 delta[B3,B48,0] <= 70.5
 PM[B3,B48,1]: c[B3,1] - c[B48,1] + 10000 delta[B3,B48,1] <= 9988
 PM[B3,B49,0]: c[B3,0] - c[B49,0] + 100 delta[B3,B49,0] <= 72
 PM[B3,B49,1]: c[B3,1] - c[B49,1] + 9999 delta[B3,B49,1] <= 9985
 PM[B4,B0,0]: - c[B0,0] + c[B4,0] + 100 delta[B4,B0,0] <= 92.5
 PM[B4,B0,1]: - c[B0,1] + c[B4,1] + 9994 delta[B4,B0,1] <= 9973
 PM[B4,B1,0]: - c[B1,0] + c[B4,0] + 100 delta[B4,B1,0] <= 75
 PM[B4,B1,1]: - c[B1,1] + c[B4,1] + 10000 delta[B4,B1,1] <= 9978
 PM[B4,B2,0]: - c[B2,0] + c[B4,0] + 100 delta[B4,B2,0] <= 94
 PM[B4,B2,1]: - c[B2,1] + c[B4,1] + 10000 delta[B4,B2,1] <= 9979
 PM[B4,B3,0]: - c[B3,0] + c[B4,0] + 100 delta[B4,B3,0] <= 79
 PM[B4,B3,1]: - c[B3,1] + c[B4,1] + 9996 delta[B4,B3,1] <= 9974
 PM[B4,B5,0]: c[B4,0] - c[B5,0] + 100 delta[B4,B5,0] <= 94
 PM[B4,B5,1]: c[B4,1] - c[B5,1] + 10000 delta[B4,B5,1] <= 9981.5
 PM[B4,B6,0]: c[B4,0] - c[B6,0] + 100 delta[B4,B6,0] <= 89.5
 PM[B4,B6,1]: c[B4,1] - c[B6,1] + 10000 delta[B4,B6,1] <= 9980.5
 PM[B4,B7,0]: c[B4,0] - c[B7,0] + 100 delta[B4,B7,0] <= 84.5
 PM[B4,B7,1]: c[B4,1] - c[B7,1] + 10000 delta[B4,B7,1] <= 9980.5
 PM[B4,B8,0]: c[B4,0] - c[B8,0] + 100 delta[B4,B8,0] <= 87.5
 PM[B4,B8,1]: c[B4,1] - c[B8,1] + 9997 delta[B4,B8,1] <= 9973.5
 PM[B4,B9,0]: c[B4,0] - c[B9,0] + 100 delta[B4,B9,0] <= 90.5
 PM[B4,B9,1]: c[B4,1] - c[B9,1] + 10000 delta[B4,B9,1] <= 9980
 PM[B4,B10,0]: c[B4,0] - c[B10,0] + 100 delta[B4,B10,0] <= 92
 PM[B4,B10,1]: c[B4,1] - c[B10,1] + 10000 delta[B4,B10,1] <= 9979.5
 PM[B4,B11,0]: c[B4,0] - c[B11,0] + 100 delta[B4,B11,0] <= 88.5
 PM[B4,B11,1]: c[B4,1] - c[B11,1] + 9994 delta[B4,B11,1] <= 9973.5
 PM[B4,B12,0]: c[B4,0] - c[B12,0] + 100 delta[B4,B12,0] <= 87.5
 PM[B4,B12,1]: c[B4,1] - c[B12,1] + 9999 delta[B4,B12,1] <= 9977.5
 PM[B4,B13,0]: c[B4,0] - c[B13,0] + 100 delta[B4,B13,0] <= 87
 PM[B4,B13,1]: c[B4,1] - c[B13,1] + 10000 delta[B4,B13,1] <= 9980.5
 PM[B4,B14,0]: c[B4,0] - c[B14,0] + 100 delta[B4,B14,0] <= 88
 PM[B4,B14,1]: c[B4,1] - c[B14,1] + 9997 delta[B4,B14,1] <= 9977
 PM[B4,B15,0]: c[B4,0] - c[B15,0] + 100 delta[B4,B15,0] <= 89
 PM[B4,B15,1]: c[B4,1] - c[B15,1] + 9991 delta[B4,B15,1] <= 9968.5
 PM[B4,B16,0]: c[B4,0] - c[B16,0] + 100 delta[B4,B16,0] <= 90.5
 PM[B4,B16,1]: c[B4,1] - c[B16,1] + 9995 delta[B4,B16,1] <= 9975.5
 PM[B4,B17,0]: c[B4,0] - c[B17,0] + 100 delta[B4,B17,0] <= 81
 PM[B4,B17,1]: c[B4,1] - c[B17,1] + 9991 delta[B4,B17,1] <= 9959
 PM[B4,B18,0]: c[B4,0] - c[B18,0] + 100 delta[B4,B18,0] <= 83
 PM[B4,B18,1]: c[B4,1] - c[B18,1] + 10000 delta[B4,B18,1] <= 9981
 PM[B4,B19,0]: c[B4,0] - c[B19,0] + 100 delta[B4,B19,0] <= 90.5
 PM[B4,B19,1]: c[B4,1] - c[B19,1] + 10000 delta[B4,B19,1] <= 9979.5
 PM[B4,B20,0]: c[B4,0] - c[B20,0] + 100 delta[B4,B20,0] <= 89
 PM[B4,B20,1]: c[B4,1] - c[B20,1] + 9991 delta[B4,B20,1] <= 9969.5
 PM[B4,B21,0]: c[B4,0] - c[B21,0] + 100 delta[B4,B21,0] <= 86
 PM[B4,B21,1]: c[B4,1] - c[B21,1] + 9994 delta[B4,B21,1] <= 9974.5
 PM[B4,B22,0]: c[B4,0] - c[B22,0] + 100 delta[B4,B22,0] <= 92.5
 PM[B4,B22,1]: c[B4,1] - c[B22,1] + 9991 delta[B4,B22,1] <= 9964.5
 PM[B4,B23,0]: c[B4,0] - c[B23,0] + 100 delta[B4,B23,0] <= 93
 PM[B4,B23,1]: c[B4,1] - c[B23,1] + 10000 delta[B4,B23,1] <= 9976.5
 PM[B4,B24,0]: c[B4,0] - c[B24,0] + 100 delta[B4,B24,0] <= 83
 PM[B4,B24,1]: c[B4,1] - c[B24,1] + 9991 delta[B4,B24,1] <= 9962
 PM[B4,B25,0]: c[B4,0] - c[B25,0] + 100 delta[B4,B25,0] <= 89
 PM[B4,B25,1]: c[B4,1] - c[B25,1] + 10000 delta[B4,B25,1] <= 9980
 PM[B4,B26,0]: c[B4,0] - c[B26,0] + 100 delta[B4,B26,0] <= 93.5
 PM[B4,B26,1]: c[B4,1] - c[B26,1] + 10000 delta[B4,B26,1] <= 9981
 PM[B4,B27,0]: c[B4,0] - c[B27,0] + 100 delta[B4,B27,0] <= 92
 PM[B4,B27,1]: c[B4,1] - c[B27,1] + 9998 delta[B4,B27,1] <= 9973
 PM[B4,B28,0]: c[B4,0] - c[B28,0] + 100 delta[B4,B28,0] <= 88.5
 PM[B4,B28,1]: c[B4,1] - c[B28,1] + 10000 delta[B4,B28,1] <= 9981
 PM[B4,B29,0]: c[B4,0] - c[B29,0] + 100 delta[B4,B29,0] <= 78
 PM[B4,B29,1]: c[B4,1] - c[B29,1] + 9993 delta[B4,B29,1] <= 9970
 PM[B4,B30,0]: c[B4,0] - c[B30,0] + 100 delta[B4,B30,0] <= 91
 PM[B4,B30,1]: c[B4,1] - c[B30,1] + 10000 delta[B4,B30,1] <= 9974.5
 PM[B4,B31,0]: c[B4,0] - c[B31,0] + 100 delta[B4,B31,0] <= 88
 PM[B4,B31,1]: c[B4,1] - c[B31,1] + 10000 delta[B4,B31,1] <= 9976
 PM[B4,B32,0]: c[B4,0] - c[B32,0] + 100 delta[B4,B32,0] <= 81
 PM[B4,B32,1]: c[B4,1] - c[B32,1] + 9996 delta[B4,B32,1] <= 9976
 PM[B4,B33,0]: c[B4,0] - c[B33,0] + 100 delta[B4,B33,0] <= 80.5
 PM[B4,B33,1]: c[B4,1] - c[B33,1] + 10000 delta[B4,B33,1] <= 9981.5
 PM[B4,B34,0]: c[B4,0] - c[B34,0] + 100 delta[B4,B34,0] <= 94.5
 PM[B4,B34,1]: c[B4,1] - c[B34,1] + 10000 delta[B4,B34,1] <= 9978
 PM[B4,B35,0]: c[B4,0] - c[B35,0] + 100 delta[B4,B35,0] <= 82
 PM[B4,B35,1]: c[B4,1] - c[B35,1] + 9991 delta[B4,B35,1] <= 9971
 PM[B4,B36,0]: c[B4,0] - c[B36,0] + 100 delta[B4,B36,0] <= 92
 PM[B4,B36,1]: c[B4,1] - c[B36,1] + 10000 delta[B4,B36,1] <= 9979
 PM[B4,B37,0]: c[B4,0] - c[B37,0] + 100 delta[B4,B37,0] <= 89
 PM[B4,B37,1]: c[B4,1] - c[B37,1] + 10000 delta[B4,B37,1] <= 9981
 PM[B4,B38,0]: c[B4,0] - c[B38,0] + 100 delta[B4,B38,0] <= 80.5
 PM[B4,B38,1]: c[B4,1] - c[B38,1] + 10000 delta[B4,B38,1] <= 9978
 PM[B4,B39,0]: c[B4,0] - c[B39,0] + 100 delta[B4,B39,0] <= 78
 PM[B4,B39,1]: c[B4,1] - c[B39,1] + 10000 delta[B4,B39,1] <= 9974
 PM[B4,B40,0]: c[B4,0] - c[B40,0] + 100 delta[B4,B40,0] <= 83
 PM[B4,B40,1]: c[B4,1] - c[B40,1] + 10000 delta[B4,B40,1] <= 9981.5
 PM[B4,B41,0]: c[B4,0] - c[B41,0] + 100 delta[B4,B41,0] <= 92.5
 PM[B4,B41,1]: c[B4,1] - c[B41,1] + 10000 delta[B4,B41,1] <= 9979.5
 PM[B4,B42,0]: c[B4,0] - c[B42,0] + 100 delta[B4,B42,0] <= 89.5
 PM[B4,B42,1]: c[B4,1] - c[B42,1] + 9991 delta[B4,B42,1] <= 9965
 PM[B4,B43,0]: c[B4,0] - c[B43,0] + 100 delta[B4,B43,0] <= 84
 PM[B4,B43,1]: c[B4,1] - c[B43,1] + 9994 delta[B4,B43,1] <= 9974
 PM[B4,B44,0]: c[B4,0] - c[B44,0] + 100 delta[B4,B44,0] <= 89
 PM[B4,B44,1]: c[B4,1] - c[B44,1] + 9995 delta[B4,B44,1] <= 9974.5
 PM[B4,B45,0]: c[B4,0] - c[B45,0] + 100 delta[B4,B45,0] <= 92
 PM[B4,B45,1]: c[B4,1] - c[B45,1] + 9991 delta[B4,B45,1] <= 9967.5
 PM[B4,B46,0]: c[B4,0] - c[B46,0] + 100 delta[B4,B46,0] <= 84.5
 PM[B4,B46,1]: c[B4,1] - c[B46,1] + 10000 delta[B4,B46,1] <= 9981
 PM[B4,B47,0]: c[B4,0] - c[B47,0] + 100 delta[B4,B47,0] <= 91
 PM[B4,B47,1]: c[B4,1] - c[B47,1] + 10000 delta[B4,B47,1] <= 9979
 PM[B4,B48,0]: c[B4,0] - c[B48,0] + 100 delta[B4,B48,0] <= 89.5
 PM[B4,B48,1]: c[B4,1] - c[B48,1] + 10000 delta[B4,B48,1] <= 9980
 PM[B4,B49,0]: c[B4,0] - c[B49,0] + 100 delta[B4,B49,0] <= 91
 PM[B4,B49,1]: c[B4,1] - c[B49,1] + 9996 delta[B4,B49,1] <= 9977
 PM[B5,B0,0]: - c[B0,0] + c[B5,0] + 100 delta[B5,B0,0] <= 86.5
 PM[B5,B0,1]: - c[B0,1] + c[B5,1] + 9995 delta[B5,B0,1] <= 9980.5
 PM[B5,B1,0]: - c[B1,0] + c[B5,0] + 94 delta[B5,B1,0] <= 69
 PM[B5,B1,1]: - c[B1,1] + c[B5,1] + 10000 delta[B5,B1,1] <= 9985.5
 PM[B5,B2,0]: - c[B2,0] + c[B5,0] + 100 delta[B5,B2,0] <= 88
 PM[B5,B2,1]: - c[B2,1] + c[B5,1] + 10000 delta[B5,B2,1] <= 9986.5
 PM[B5,B3,0]: - c[B3,0] + c[B5,0] + 94 delta[B5,B3,0] <= 73
 PM[B5,B3,1]: - c[B3,1] + c[B5,1] + 9996 delta[B5,B3,1] <= 9981.5
 PM[B5,B4,0]: - c[B4,0] + c[B5,0] + 100 delta[B5,B4,0] <= 88
 PM[B5,B4,1]: - c[B4,1] + c[B5,1] + 10000 delta[B5,B4,1] <= 9985.5
 PM[B5,B6,0]: c[B5,0] - c[B6,0] + 100 delta[B5,B6,0] <= 83.5
 PM[B5,B6,1]: c[B5,1] - c[B6,1] + 10000 delta[B5,B6,1] <= 9988
 PM[B5,B7,0]: c[B5,0] - c[B7,0] + 95 delta[B5,B7,0] <= 78.5
 PM[B5,B7,1]: c[B5,1] - c[B7,1] + 10000 delta[B5,B7,1] <= 9988
 PM[B5,B8,0]: c[B5,0] - c[B8,0] + 94 delta[B5,B8,0] <= 81.5
 PM[B5,B8,1]: c[B5,1] - c[B8,1] + 9997 delta[B5,B8,1] <= 9981
 PM[B5,B9,0]: c[B5,0] - c[B9,0] + 99 delta[B5,B9,0] <= 84.5
 PM[B5,B9,1]: c[B5,1] - c[B9,1] + 10000 delta[B5,B9,1] <= 9987.5
 PM[B5,B10,0]: c[B5,0] - c[B10,0] + 100 delta[B5,B10,0] <= 86
 PM[B5,B10,1]: c[B5,1] - c[B10,1] + 10000 delta[B5,B10,1] <= 9987
 PM[B5,B11,0]: c[B5,0] - c[B11,0] + 96 delta[B5,B11,0] <= 82.5
 PM[B5,B11,1]: c[B5,1] - c[B11,1] + 9995 delta[B5,B11,1] <= 9981
 PM[B5,B12,0]: c[B5,0] - c[B12,0] + 100 delta[B5,B12,0] <= 81.5
 PM[B5,B12,1]: c[B5,1] - c[B12,1] + 9999 delta[B5,B12,1] <= 9985
 PM[B5,B13,0]: c[B5,0] - c[B13,0] + 97 delta[B5,B13,0] <= 81
 PM[B5,B13,1]: c[B5,1] - c[B13,1] + 10000 delta[B5,B13,1] <= 9988
 PM[B5,B14,0]: c[B5,0] - c[B14,0] + 98 delta[B5,B14,0] <= 82
 PM[B5,B14,1]: c[B5,1] - c[B14,1] + 9997 delta[B5,B14,1] <= 9984.5
 PM[B5,B15,0]: c[B5,0] - c[B15,0] + 100 delta[B5,B15,0] <= 83
 PM[B5,B15,1]: c[B5,1] - c[B15,1] + 9995 delta[B5,B15,1] <= 9976
 PM[B5,B16,0]: c[B5,0] - c[B16,0] + 100 delta[B5,B16,0] <= 84.5
 PM[B5,B16,1]: c[B5,1] - c[B16,1] + 9995 delta[B5,B16,1] <= 9983
 PM[B5,B17,0]: c[B5,0] - c[B17,0] + 94 delta[B5,B17,0] <= 75
 PM[B5,B17,1]: c[B5,1] - c[B17,1] + 9995 delta[B5,B17,1] <= 9966.5
 PM[B5,B18,0]: c[B5,0] - c[B18,0] + 96 delta[B5,B18,0] <= 77
 PM[B5,B18,1]: c[B5,1] - c[B18,1] + 10000 delta[B5,B18,1] <= 9988.5
 PM[B5,B19,0]: c[B5,0] - c[B19,0] + 100 delta[B5,B19,0] <= 84.5
 PM[B5,B19,1]: c[B5,1] - c[B19,1] + 10000 delta[B5,B19,1] <= 9987
 PM[B5,B20,0]: c[B5,0] - c[B20,0] + 100 delta[B5,B20,0] <= 83
 PM[B5,B20,1]: c[B5,1] - c[B20,1] + 9995 delta[B5,B20,1] <= 9977
 PM[B5,B21,0]: c[B5,0] - c[B21,0] + 100 delta[B5,B21,0] <= 80
 PM[B5,B21,1]: c[B5,1] - c[B21,1] + 9995 delta[B5,B21,1] <= 9982
 PM[B5,B22,0]: c[B5,0] - c[B22,0] + 100 delta[B5,B22,0] <= 86.5
 PM[B5,B22,1]: c[B5,1] - c[B22,1] + 9995 delta[B5,B22,1] <= 9972
 PM[B5,B23,0]: c[B5,0] - c[B23,0] + 100 delta[B5,B23,0] <= 87
 PM[B5,B23,1]: c[B5,1] - c[B23,1] + 10000 delta[B5,B23,1] <= 9984
 PM[B5,B24,0]: c[B5,0] - c[B24,0] + 94 delta[B5,B24,0] <= 77
 PM[B5,B24,1]: c[B5,1] - c[B24,1] + 9995 delta[B5,B24,1] <= 9969.5
 PM[B5,B25,0]: c[B5,0] - c[B25,0] + 100 delta[B5,B25,0] <= 83
 PM[B5,B25,1]: c[B5,1] - c[B25,1] + 10000 delta[B5,B25,1] <= 9987.5
 PM[B5,B26,0]: c[B5,0] - c[B26,0] + 100 delta[B5,B26,0] <= 87.5
 PM[B5,B26,1]: c[B5,1] - c[B26,1] + 10000 delta[B5,B26,1] <= 9988.5
 PM[B5,B27,0]: c[B5,0] - c[B27,0] + 99 delta[B5,B27,0] <= 86
 PM[B5,B27,1]: c[B5,1] - c[B27,1] + 9998 delta[B5,B27,1] <= 9980.5
 PM[B5,B28,0]: c[B5,0] - c[B28,0] + 100 delta[B5,B28,0] <= 82.5
 PM[B5,B28,1]: c[B5,1] - c[B28,1] + 10000 delta[B5,B28,1] <= 9988.5
 PM[B5,B29,0]: c[B5,0] - c[B29,0] + 94 delta[B5,B29,0] <= 72
 PM[B5,B29,1]: c[B5,1] - c[B29,1] + 9995 delta[B5,B29,1] <= 9977.5
 PM[B5,B30,0]: c[B5,0] - c[B30,0] + 97 delta[B5,B30,0] <= 85
 PM[B5,B30,1]: c[B5,1] - c[B30,1] + 10000 delta[B5,B30,1] <= 9982
 PM[B5,B31,0]: c[B5,0] - c[B31,0] + 100 delta[B5,B31,0] <= 82
 PM[B5,B31,1]: c[B5,1] - c[B31,1] + 10000 delta[B5,B31,1] <= 9983.5
 PM[B5,B32,0]: c[B5,0] - c[B32,0] + 94 delta[B5,B32,0] <= 75
 PM[B5,B32,1]: c[B5,1] - c[B32,1] + 9996 delta[B5,B32,1] <= 9983.5
 PM[B5,B33,0]: c[B5,0] - c[B33,0] + 94 delta[B5,B33,0] <= 74.5
 PM[B5,B33,1]: c[B5,1] - c[B33,1] + 10000 delta[B5,B33,1] <= 9989
 PM[B5,B34,0]: c[B5,0] - c[B34,0] + 100 delta[B5,B34,0] <= 88.5
 PM[B5,B34,1]: c[B5,1] - c[B34,1] + 10000 delta[B5,B34,1] <= 9985.5
 PM[B5,B35,0]: c[B5,0] - c[B35,0] + 94 delta[B5,B35,0] <= 76
 PM[B5,B35,1]: c[B5,1] - c[B35,1] + 9995 delta[B5,B35,1] <= 9978.5
 PM[B5,B36,0]: c[B5,0] - c[B36,0] + 100 delta[B5,B36,0] <= 86
 PM[B5,B36,1]: c[B5,1] - c[B36,1] + 10000 delta[B5,B36,1] <= 9986.5
 PM[B5,B37,0]: c[B5,0] - c[B37,0] + 95 delta[B5,B37,0] <= 83
 PM[B5,B37,1]: c[B5,1] - c[B37,1] + 10000 delta[B5,B37,1] <= 9988.5
 PM[B5,B38,0]: c[B5,0] - c[B38,0] + 94 delta[B5,B38,0] <= 74.5
 PM[B5,B38,1]: c[B5,1] - c[B38,1] + 10000 delta[B5,B38,1] <= 9985.5
 PM[B5,B39,0]: c[B5,0] - c[B39,0] + 94 delta[B5,B39,0] <= 72
 PM[B5,B39,1]: c[B5,1] - c[B39,1] + 10000 delta[B5,B39,1] <= 9981.5
 PM[B5,B40,0]: c[B5,0] - c[B40,0] + 94 delta[B5,B40,0] <= 77
 PM[B5,B40,1]: c[B5,1] - c[B40,1] + 10000 delta[B5,B40,1] <= 9989
 PM[B5,B41,0]: c[B5,0] - c[B41,0] + 100 delta[B5,B41,0] <= 86.5
 PM[B5,B41,1]: c[B5,1] - c[B41,1] + 10000 delta[B5,B41,1] <= 9987
 PM[B5,B42,0]: c[B5,0] - c[B42,0] + 100 delta[B5,B42,0] <= 83.5
 PM[B5,B42,1]: c[B5,1] - c[B42,1] + 9995 delta[B5,B42,1] <= 9972.5
 PM[B5,B43,0]: c[B5,0] - c[B43,0] + 95 delta[B5,B43,0] <= 78
 PM[B5,B43,1]: c[B5,1] - c[B43,1] + 9995 delta[B5,B43,1] <= 9981.5
 PM[B5,B44,0]: c[B5,0] - c[B44,0] + 100 delta[B5,B44,0] <= 83
 PM[B5,B44,1]: c[B5,1] - c[B44,1] + 9995 delta[B5,B44,1] <= 9982
 PM[B5,B45,0]: c[B5,0] - c[B45,0] + 100 delta[B5,B45,0] <= 86
 PM[B5,B45,1]: c[B5,1] - c[B45,1] + 9995 delta[B5,B45,1] <= 9975
 PM[B5,B46,0]: c[B5,0] - c[B46,0] + 94 delta[B5,B46,0] <= 78.5
 PM[B5,B46,1]: c[B5,1] - c[B46,1] + 10000 delta[B5,B46,1] <= 9988.5
 PM[B5,B47,0]: c[B5,0] - c[B47,0] + 100 delta[B5,B47,0] <= 85
 PM[B5,B47,1]: c[B5,1] - c[B47,1] + 10000 delta[B5,B47,1] <= 9986.5
 PM[B5,B48,0]: c[B5,0] - c[B48,0] + 100 delta[B5,B48,0] <= 83.5
 PM[B5,B48,1]: c[B5,1] - c[B48,1] + 10000 delta[B5,B48,1] <= 9987.5
 PM[B5,B49,0]: c[B5,0] - c[B49,0] + 100 delta[B5,B49,0] <= 85
 PM[B5,B49,1]: c[B5,1] - c[B49,1] + 9996 delta[B5,B49,1] <= 9984.5
 PM[B6,B0,0]: - c[B0,0] + c[B6,0] + 100 delta[B6,B0,0] <= 88
 PM[B6,B0,1]: - c[B0,1] + c[B6,1] + 10000 delta[B6,B0,1] <= 9984.5
 PM[B6,B1,0]: - c[B1,0] + c[B6,0] + 100 delta[B6,B1,0] <= 70.5
 PM[B6,B1,1]: - c[B1,1] + c[B6,1] + 10000 delta[B6,B1,1] <= 9989.5
 PM[B6,B2,0]: - c[B2,0] + c[B6,0] + 100 delta[B6,B2,0] <= 89.5
 PM[B6,B2,1]: - c[B2,1] + c[B6,1] + 10000 delta[B6,B2,1] <= 9990.5
 PM[B6,B3,0]: - c[B3,0] + c[B6,0] + 100 delta[B6,B3,0] <= 74.5
 PM[B6,B3,1]: - c[B3,1] + c[B6,1] + 10000 delta[B6,B3,1] <= 9985.5
 PM[B6,B4,0]: - c[B4,0] + c[B6,0] + 100 delta[B6,B4,0] <= 89.5
 PM[B6,B4,1]: - c[B4,1] + c[B6,1] + 10000 delta[B6,B4,1] <= 9989.5
 PM[B6,B5,0]: - c[B5,0] + c[B6,0] + 100 delta[B6,B5,0] <= 89.5
 PM[B6,B5,1]: - c[B5,1] + c[B6,1] + 10000 delta[B6,B5,1] <= 9993
 PM[B6,B7,0]: c[B6,0] - c[B7,0] + 100 delta[B6,B7,0] <= 80
 PM[B6,B7,1]: c[B6,1] - c[B7,1] + 10000 delta[B6,B7,1] <= 9992
 PM[B6,B8,0]: c[B6,0] - c[B8,0] + 100 delta[B6,B8,0] <= 83
 PM[B6,B8,1]: c[B6,1] - c[B8,1] + 10000 delta[B6,B8,1] <= 9985
 PM[B6,B9,0]: c[B6,0] - c[B9,0] + 100 delta[B6,B9,0] <= 86
 PM[B6,B9,1]: c[B6,1] - c[B9,1] + 10000 delta[B6,B9,1] <= 9991.5
 PM[B6,B10,0]: c[B6,0] - c[B10,0] + 100 delta[B6,B10,0] <= 87.5
 PM[B6,B10,1]: c[B6,1] - c[B10,1] + 10000 delta[B6,B10,1] <= 9991
 PM[B6,B11,0]: c[B6,0] - c[B11,0] + 100 delta[B6,B11,0] <= 84
 PM[B6,B11,1]: c[B6,1] - c[B11,1] + 10000 delta[B6,B11,1] <= 9985
 PM[B6,B12,0]: c[B6,0] - c[B12,0] + 100 delta[B6,B12,0] <= 83
 PM[B6,B12,1]: c[B6,1] - c[B12,1] + 10000 delta[B6,B12,1] <= 9989
 PM[B6,B13,0]: c[B6,0] - c[B13,0] + 100 delta[B6,B13,0] <= 82.5
 PM[B6,B13,1]: c[B6,1] - c[B13,1] + 10000 delta[B6,B13,1] <= 9992
 PM[B6,B14,0]: c[B6,0] - c[B14,0] + 100 delta[B6,B14,0] <= 83.5
 PM[B6,B14,1]: c[B6,1] - c[B14,1] + 10000 delta[B6,B14,1] <= 9988.5
 PM[B6,B15,0]: c[B6,0] - c[B15,0] + 100 delta[B6,B15,0] <= 84.5
 PM[B6,B15,1]: c[B6,1] - c[B15,1] + 10000 delta[B6,B15,1] <= 9980
 PM[B6,B16,0]: c[B6,0] - c[B16,0] + 100 delta[B6,B16,0] <= 86
 PM[B6,B16,1]: c[B6,1] - c[B16,1] + 10000 delta[B6,B16,1] <= 9987
 PM[B6,B17,0]: c[B6,0] - c[B17,0] + 100 delta[B6,B17,0] <= 76.5
 PM[B6,B17,1]: c[B6,1] - c[B17,1] + 10000 delta[B6,B17,1] <= 9970.5
 PM[B6,B18,0]: c[B6,0] - c[B18,0] + 100 delta[B6,B18,0] <= 78.5
 PM[B6,B18,1]: c[B6,1] - c[B18,1] + 10000 delta[B6,B18,1] <= 9992.5
 PM[B6,B19,0]: c[B6,0] - c[B19,0] + 100 delta[B6,B19,0] <= 86
 PM[B6,B19,1]: c[B6,1] - c[B19,1] + 10000 delta[B6,B19,1] <= 9991
 PM[B6,B20,0]: c[B6,0] - c[B20,0] + 100 delta[B6,B20,0] <= 84.5
 PM[B6,B20,1]: c[B6,1] - c[B20,1] + 10000 delta[B6,B20,1] <= 9981
 PM[B6,B21,0]: c[B6,0] - c[B21,0] + 100 delta[B6,B21,0] <= 81.5
 PM[B6,B21,1]: c[B6,1] - c[B21,1] + 10000 delta[B6,B21,1] <= 9986
 PM[B6,B22,0]: c[B6,0] - c[B22,0] + 100 delta[B6,B22,0] <= 88
 PM[B6,B22,1]: c[B6,1] - c[B22,1] + 10000 delta[B6,B22,1] <= 9976
 PM[B6,B23,0]: c[B6,0] - c[B23,0] + 100 delta[B6,B23,0] <= 88.5
 PM[B6,B23,1]: c[B6,1] - c[B23,1] + 10000 delta[B6,B23,1] <= 9988
 PM[B6,B24,0]: c[B6,0] - c[B24,0] + 100 delta[B6,B24,0] <= 78.5
 PM[B6,B24,1]: c[B6,1] - c[B24,1] + 10000 delta[B6,B24,1] <= 9973.5
 PM[B6,B25,0]: c[B6,0] - c[B25,0] + 100 delta[B6,B25,0] <= 84.5
 PM[B6,B25,1]: c[B6,1] - c[B25,1] + 10000 delta[B6,B25,1] <= 9991.5
 PM[B6,B26,0]: c[B6,0] - c[B26,0] + 100 delta[B6,B26,0] <= 89
 PM[B6,B26,1]: c[B6,1] - c[B26,1] + 10000 delta[B6,B26,1] <= 9992.5
 PM[B6,B27,0]: c[B6,0] - c[B27,0] + 100 delta[B6,B27,0] <= 87.5
 PM[B6,B27,1]: c[B6,1] - c[B27,1] + 10000 delta[B6,B27,1] <= 9984.5
 PM[B6,B28,0]: c[B6,0] - c[B28,0] + 100 delta[B6,B28,0] <= 84
 PM[B6,B28,1]: c[B6,1] - c[B28,1] + 10000 delta[B6,B28,1] <= 9992.5
 PM[B6,B29,0]: c[B6,0] - c[B29,0] + 100 delta[B6,B29,0] <= 73.5
 PM[B6,B29,1]: c[B6,1] - c[B29,1] + 10000 delta[B6,B29,1] <= 9981.5
 PM[B6,B30,0]: c[B6,0] - c[B30,0] + 100 delta[B6,B30,0] <= 86.5
 PM[B6,B30,1]: c[B6,1] - c[B30,1] + 10000 delta[B6,B30,1] <= 9986
 PM[B6,B31,0]: c[B6,0] - c[B31,0] + 100 delta[B6,B31,0] <= 83.5
 PM[B6,B31,1]: c[B6,1] - c[B31,1] + 10000 delta[B6,B31,1] <= 9987.5
 PM[B6,B32,0]: c[B6,0] - c[B32,0] + 100 delta[B6,B32,0] <= 76.5
 PM[B6,B32,1]: c[B6,1] - c[B32,1] + 10000 delta[B6,B32,1] <= 9987.5
 PM[B6,B33,0]: c[B6,0] - c[B33,0] + 100 delta[B6,B33,0] <= 76
 PM[B6,B33,1]: c[B6,1] - c[B33,1] + 10000 delta[B6,B33,1] <= 9993
 PM[B6,B34,0]: c[B6,0] - c[B34,0] + 100 delta[B6,B34,0] <= 90
 PM[B6,B34,1]: c[B6,1] - c[B34,1] + 10000 delta[B6,B34,1] <= 9989.5
 PM[B6,B35,0]: c[B6,0] - c[B35,0] + 100 delta[B6,B35,0] <= 77.5
 PM[B6,B35,1]: c[B6,1] - c[B35,1] + 10000 delta[B6,B35,1] <= 9982.5
 PM[B6,B36,0]: c[B6,0] - c[B36,0] + 100 delta[B6,B36,0] <= 87.5
 PM[B6,B36,1]: c[B6,1] - c[B36,1] + 10000 delta[B6,B36,1] <= 9990.5
 PM[B6,B37,0]: c[B6,0] - c[B37,0] + 100 delta[B6,B37,0] <= 84.5
 PM[B6,B37,1]: c[B6,1] - c[B37,1] + 10000 delta[B6,B37,1] <= 9992.5
 PM[B6,B38,0]: c[B6,0] - c[B38,0] + 100 delta[B6,B38,0] <= 76
 PM[B6,B38,1]: c[B6,1] - c[B38,1] + 10000 delta[B6,B38,1] <= 9989.5
 PM[B6,B39,0]: c[B6,0] - c[B39,0] + 100 delta[B6,B39,0] <= 73.5
 PM[B6,B39,1]: c[B6,1] - c[B39,1] + 10000 delta[B6,B39,1] <= 9985.5
 PM[B6,B40,0]: c[B6,0] - c[B40,0] + 100 delta[B6,B40,0] <= 78.5
 PM[B6,B40,1]: c[B6,1] - c[B40,1] + 10000 delta[B6,B40,1] <= 9993
 PM[B6,B41,0]: c[B6,0] - c[B41,0] + 100 delta[B6,B41,0] <= 88
 PM[B6,B41,1]: c[B6,1] - c[B41,1] + 10000 delta[B6,B41,1] <= 9991
 PM[B6,B42,0]: c[B6,0] - c[B42,0] + 100 delta[B6,B42,0] <= 85
 PM[B6,B42,1]: c[B6,1] - c[B42,1] + 10000 delta[B6,B42,1] <= 9976.5
 PM[B6,B43,0]: c[B6,0] - c[B43,0] + 100 delta[B6,B43,0] <= 79.5
 PM[B6,B43,1]: c[B6,1] - c[B43,1] + 10000 delta[B6,B43,1] <= 9985.5
 PM[B6,B44,0]: c[B6,0] - c[B44,0] + 100 delta[B6,B44,0] <= 84.5
 PM[B6,B44,1]: c[B6,1] - c[B44,1] + 10000 delta[B6,B44,1] <= 9986
 PM[B6,B45,0]: c[B6,0] - c[B45,0] + 100 delta[B6,B45,0] <= 87.5
 PM[B6,B45,1]: c[B6,1] - c[B45,1] + 10000 delta[B6,B45,1] <= 9979
 PM[B6,B46,0]: c[B6,0] - c[B46,0] + 100 delta[B6,B46,0] <= 80
 PM[B6,B46,1]: c[B6,1] - c[B46,1] + 10000 delta[B6,B46,1] <= 9992.5
 PM[B6,B47,0]: c[B6,0] - c[B47,0] + 100 delta[B6,B47,0] <= 86.5
 PM[B6,B47,1]: c[B6,1] - c[B47,1] + 10000 delta[B6,B47,1] <= 9990.5
 PM[B6,B48,0]: c[B6,0] - c[B48,0] + 100 delta[B6,B48,0] <= 85
 PM[B6,B48,1]: c[B6,1] - c[B48,1] + 10000 delta[B6,B48,1] <= 9991.5
 PM[B6,B49,0]: c[B6,0] - c[B49,0] + 100 delta[B6,B49,0] <= 86.5
 PM[B6,B49,1]: c[B6,1] - c[B49,1] + 10000 delta[B6,B49,1] <= 9988.5
 PM[B7,B0,0]: - c[B0,0] + c[B7,0] + 100 delta[B7,B0,0] <= 82
 PM[B7,B0,1]: - c[B0,1] + c[B7,1] + 9999 delta[B7,B0,1] <= 9983.5
 PM[B7,B1,0]: - c[B1,0] + c[B7,0] + 94 delta[B7,B1,0] <= 64.5
 PM[B7,B1,1]: - c[B1,1] + c[B7,1] + 10000 delta[B7,B1,1] <= 9988.5
 PM[B7,B2,0]: - c[B2,0] + c[B7,0] + 100 delta[B7,B2,0] <= 83.5
 PM[B7,B2,1]: - c[B2,1] + c[B7,1] + 10000 delta[B7,B2,1] <= 9989.5
 PM[B7,B3,0]: - c[B3,0] + c[B7,0] + 94 delta[B7,B3,0] <= 68.5
 PM[B7,B3,1]: - c[B3,1] + c[B7,1] + 9999 delta[B7,B3,1] <= 9984.5
 PM[B7,B4,0]: - c[B4,0] + c[B7,0] + 100 delta[B7,B4,0] <= 83.5
 PM[B7,B4,1]: - c[B4,1] + c[B7,1] + 10000 delta[B7,B4,1] <= 9988.5
 PM[B7,B5,0]: - c[B5,0] + c[B7,0] + 100 delta[B7,B5,0] <= 83.5
 PM[B7,B5,1]: - c[B5,1] + c[B7,1] + 10000 delta[B7,B5,1] <= 9992
 PM[B7,B6,0]: - c[B6,0] + c[B7,0] + 100 delta[B7,B6,0] <= 79
 PM[B7,B6,1]: - c[B6,1] + c[B7,1] + 10000 delta[B7,B6,1] <= 9991
 PM[B7,B8,0]: c[B7,0] - c[B8,0] + 94 delta[B7,B8,0] <= 77
 PM[B7,B8,1]: c[B7,1] - c[B8,1] + 9999 delta[B7,B8,1] <= 9984
 PM[B7,B9,0]: c[B7,0] - c[B9,0] + 99 delta[B7,B9,0] <= 80
 PM[B7,B9,1]: c[B7,1] - c[B9,1] + 10000 delta[B7,B9,1] <= 9990.5
 PM[B7,B10,0]: c[B7,0] - c[B10,0] + 100 delta[B7,B10,0] <= 81.5
 PM[B7,B10,1]: c[B7,1] - c[B10,1] + 10000 delta[B7,B10,1] <= 9990
 PM[B7,B11,0]: c[B7,0] - c[B11,0] + 96 delta[B7,B11,0] <= 78
 PM[B7,B11,1]: c[B7,1] - c[B11,1] + 9999 delta[B7,B11,1] <= 9984
 PM[B7,B12,0]: c[B7,0] - c[B12,0] + 100 delta[B7,B12,0] <= 77
 PM[B7,B12,1]: c[B7,1] - c[B12,1] + 9999 delta[B7,B12,1] <= 9988
 PM[B7,B13,0]: c[B7,0] - c[B13,0] + 97 delta[B7,B13,0] <= 76.5
 PM[B7,B13,1]: c[B7,1] - c[B13,1] + 10000 delta[B7,B13,1] <= 9991
 PM[B7,B14,0]: c[B7,0] - c[B14,0] + 98 delta[B7,B14,0] <= 77.5
 PM[B7,B14,1]: c[B7,1] - c[B14,1] + 9999 delta[B7,B14,1] <= 9987.5
 PM[B7,B15,0]: c[B7,0] - c[B15,0] + 100 delta[B7,B15,0] <= 78.5
 PM[B7,B15,1]: c[B7,1] - c[B15,1] + 9999 delta[B7,B15,1] <= 9979
 PM[B7,B16,0]: c[B7,0] - c[B16,0] + 100 delta[B7,B16,0] <= 80
 PM[B7,B16,1]: c[B7,1] - c[B16,1] + 9999 delta[B7,B16,1] <= 9986
 PM[B7,B17,0]: c[B7,0] - c[B17,0] + 94 delta[B7,B17,0] <= 70.5
 PM[B7,B17,1]: c[B7,1] - c[B17,1] + 9999 delta[B7,B17,1] <= 9969.5
 PM[B7,B18,0]: c[B7,0] - c[B18,0] + 96 delta[B7,B18,0] <= 72.5
 PM[B7,B18,1]: c[B7,1] - c[B18,1] + 10000 delta[B7,B18,1] <= 9991.5
 PM[B7,B19,0]: c[B7,0] - c[B19,0] + 100 delta[B7,B19,0] <= 80
 PM[B7,B19,1]: c[B7,1] - c[B19,1] + 10000 delta[B7,B19,1] <= 9990
 PM[B7,B20,0]: c[B7,0] - c[B20,0] + 100 delta[B7,B20,0] <= 78.5
 PM[B7,B20,1]: c[B7,1] - c[B20,1] + 9999 delta[B7,B20,1] <= 9980
 PM[B7,B21,0]: c[B7,0] - c[B21,0] + 100 delta[B7,B21,0] <= 75.5
 PM[B7,B21,1]: c[B7,1] - c[B21,1] + 9999 delta[B7,B21,1] <= 9985
 PM[B7,B22,0]: c[B7,0] - c[B22,0] + 100 delta[B7,B22,0] <= 82
 PM[B7,B22,1]: c[B7,1] - c[B22,1] + 9999 delta[B7,B22,1] <= 9975
 PM[B7,B23,0]: c[B7,0] - c[B23,0] + 100 delta[B7,B23,0] <= 82.5
 PM[B7,B23,1]: c[B7,1] - c[B23,1] + 10000 delta[B7,B23,1] <= 9987
 PM[B7,B24,0]: c[B7,0] - c[B24,0] + 94 delta[B7,B24,0] <= 72.5
 PM[B7,B24,1]: c[B7,1] - c[B24,1] + 9999 delta[B7,B24,1] <= 9972.5
 PM[B7,B25,0]: c[B7,0] - c[B25,0] + 100 delta[B7,B25,0] <= 78.5
 PM[B7,B25,1]: c[B7,1] - c[B25,1] + 10000 delta[B7,B25,1] <= 9990.5
 PM[B7,B26,0]: c[B7,0] - c[B26,0] + 100 delta[B7,B26,0] <= 83
 PM[B7,B26,1]: c[B7,1] - c[B26,1] + 10000 delta[B7,B26,1] <= 9991.5
 PM[B7,B27,0]: c[B7,0] - c[B27,0] + 99 delta[B7,B27,0] <= 81.5
 PM[B7,B27,1]: c[B7,1] - c[B27,1] + 9999 delta[B7,B27,1] <= 9983.5
 PM[B7,B28,0]: c[B7,0] - c[B28,0] + 100 delta[B7,B28,0] <= 78
 PM[B7,B28,1]: c[B7,1] - c[B28,1] + 10000 delta[B7,B28,1] <= 9991.5
 PM[B7,B29,0]: c[B7,0] - c[B29,0] + 94 delta[B7,B29,0] <= 67.5
 PM[B7,B29,1]: c[B7,1] - c[B29,1] + 9999 delta[B7,B29,1] <= 9980.5
 PM[B7,B30,0]: c[B7,0] - c[B30,0] + 97 delta[B7,B30,0] <= 80.5
 PM[B7,B30,1]: c[B7,1] - c[B30,1] + 10000 delta[B7,B30,1] <= 9985
 PM[B7,B31,0]: c[B7,0] - c[B31,0] + 100 delta[B7,B31,0] <= 77.5
 PM[B7,B31,1]: c[B7,1] - c[B31,1] + 10000 delta[B7,B31,1] <= 9986.5
 PM[B7,B32,0]: c[B7,0] - c[B32,0] + 94 delta[B7,B32,0] <= 70.5
 PM[B7,B32,1]: c[B7,1] - c[B32,1] + 9999 delta[B7,B32,1] <= 9986.5
 PM[B7,B33,0]: c[B7,0] - c[B33,0] + 94 delta[B7,B33,0] <= 70
 PM[B7,B33,1]: c[B7,1] - c[B33,1] + 10000 delta[B7,B33,1] <= 9992
 PM[B7,B34,0]: c[B7,0] - c[B34,0] + 100 delta[B7,B34,0] <= 84
 PM[B7,B34,1]: c[B7,1] - c[B34,1] + 10000 delta[B7,B34,1] <= 9988.5
 PM[B7,B35,0]: c[B7,0] - c[B35,0] + 94 delta[B7,B35,0] <= 71.5
 PM[B7,B35,1]: c[B7,1] - c[B35,1] + 9999 delta[B7,B35,1] <= 9981.5
 PM[B7,B36,0]: c[B7,0] - c[B36,0] + 100 delta[B7,B36,0] <= 81.5
 PM[B7,B36,1]: c[B7,1] - c[B36,1] + 10000 delta[B7,B36,1] <= 9989.5
 PM[B7,B37,0]: c[B7,0] - c[B37,0] + 95 delta[B7,B37,0] <= 78.5
 PM[B7,B37,1]: c[B7,1] - c[B37,1] + 10000 delta[B7,B37,1] <= 9991.5
 PM[B7,B38,0]: c[B7,0] - c[B38,0] + 94 delta[B7,B38,0] <= 70
 PM[B7,B38,1]: c[B7,1] - c[B38,1] + 10000 delta[B7,B38,1] <= 9988.5
 PM[B7,B39,0]: c[B7,0] - c[B39,0] + 94 delta[B7,B39,0] <= 67.5
 PM[B7,B39,1]: c[B7,1] - c[B39,1] + 10000 delta[B7,B39,1] <= 9984.5
 PM[B7,B40,0]: c[B7,0] - c[B40,0] + 94 delta[B7,B40,0] <= 72.5
 PM[B7,B40,1]: c[B7,1] - c[B40,1] + 10000 delta[B7,B40,1] <= 9992
 PM[B7,B41,0]: c[B7,0] - c[B41,0] + 100 delta[B7,B41,0] <= 82
 PM[B7,B41,1]: c[B7,1] - c[B41,1] + 10000 delta[B7,B41,1] <= 9990
 PM[B7,B42,0]: c[B7,0] - c[B42,0] + 100 delta[B7,B42,0] <= 79
 PM[B7,B42,1]: c[B7,1] - c[B42,1] + 9999 delta[B7,B42,1] <= 9975.5
 PM[B7,B43,0]: c[B7,0] - c[B43,0] + 95 delta[B7,B43,0] <= 73.5
 PM[B7,B43,1]: c[B7,1] - c[B43,1] + 9999 delta[B7,B43,1] <= 9984.5
 PM[B7,B44,0]: c[B7,0] - c[B44,0] + 100 delta[B7,B44,0] <= 78.5
 PM[B7,B44,1]: c[B7,1] - c[B44,1] + 9999 delta[B7,B44,1] <= 9985
 PM[B7,B45,0]: c[B7,0] - c[B45,0] + 100 delta[B7,B45,0] <= 81.5
 PM[B7,B45,1]: c[B7,1] - c[B45,1] + 9999 delta[B7,B45,1] <= 9978
 PM[B7,B46,0]: c[B7,0] - c[B46,0] + 94 delta[B7,B46,0] <= 74
 PM[B7,B46,1]: c[B7,1] - c[B46,1] + 10000 delta[B7,B46,1] <= 9991.5
 PM[B7,B47,0]: c[B7,0] - c[B47,0] + 100 delta[B7,B47,0] <= 80.5
 PM[B7,B47,1]: c[B7,1] - c[B47,1] + 10000 delta[B7,B47,1] <= 9989.5
 PM[B7,B48,0]: c[B7,0] - c[B48,0] + 100 delta[B7,B48,0] <= 79
 PM[B7,B48,1]: c[B7,1] - c[B48,1] + 10000 delta[B7,B48,1] <= 9990.5
 PM[B7,B49,0]: c[B7,0] - c[B49,0] + 100 delta[B7,B49,0] <= 80.5
 PM[B7,B49,1]: c[B7,1] - c[B49,1] + 9999 delta[B7,B49,1] <= 9987.5
 PM[B8,B0,0]: - c[B0,0] + c[B8,0] + 100 delta[B8,B0,0] <= 92
 PM[B8,B0,1]: - c[B0,1] + c[B8,1] + 10000 delta[B8,B0,1] <= 9980.5
 PM[B8,B1,0]: - c[B1,0] + c[B8,0] + 100 delta[B8,B1,0] <= 74.5
 PM[B8,B1,1]: - c[B1,1] + c[B8,1] + 10000 delta[B8,B1,1] <= 9985.5
 PM[B8,B2,0]: - c[B2,0] + c[B8,0] + 100 delta[B8,B2,0] <= 93.5
 PM[B8,B2,1]: - c[B2,1] + c[B8,1] + 10000 delta[B8,B2,1] <= 9986.5
 PM[B8,B3,0]: - c[B3,0] + c[B8,0] + 100 delta[B8,B3,0] <= 78.5
 PM[B8,B3,1]: - c[B3,1] + c[B8,1] + 10000 delta[B8,B3,1] <= 9981.5
 PM[B8,B4,0]: - c[B4,0] + c[B8,0] + 100 delta[B8,B4,0] <= 93.5
 PM[B8,B4,1]: - c[B4,1] + c[B8,1] + 10000 delta[B8,B4,1] <= 9985.5
 PM[B8,B5,0]: - c[B5,0] + c[B8,0] + 100 delta[B8,B5,0] <= 93.5
 PM[B8,B5,1]: - c[B5,1] + c[B8,1] + 10000 delta[B8,B5,1] <= 9989
 PM[B8,B6,0]: - c[B6,0] + c[B8,0] + 100 delta[B8,B6,0] <= 89
 PM[B8,B6,1]: - c[B6,1] + c[B8,1] + 10000 delta[B8,B6,1] <= 9988
 PM[B8,B7,0]: - c[B7,0] + c[B8,0] + 100 delta[B8,B7,0] <= 84
 PM[B8,B7,1]: - c[B7,1] + c[B8,1] + 10000 delta[B8,B7,1] <= 9988
 PM[B8,B9,0]: c[B8,0] - c[B9,0] + 100 delta[B8,B9,0] <= 90
 PM[B8,B9,1]: c[B8,1] - c[B9,1] + 10000 delta[B8,B9,1] <= 9987.5
 PM[B8,B10,0]: c[B8,0] - c[B10,0] + 100 delta[B8,B10,0] <= 91.5
 PM[B8,B10,1]: c[B8,1] - c[B10,1] + 10000 delta[B8,B10,1] <= 9987
 PM[B8,B11,0]: c[B8,0] - c[B11,0] + 100 delta[B8,B11,0] <= 88
 PM[B8,B11,1]: c[B8,1] - c[B11,1] + 10000 delta[B8,B11,1] <= 9981
 PM[B8,B12,0]: c[B8,0] - c[B12,0] + 100 delta[B8,B12,0] <= 87
 PM[B8,B12,1]: c[B8,1] - c[B12,1] + 10000 delta[B8,B12,1] <= 9985
 PM[B8,B13,0]: c[B8,0] - c[B13,0] + 100 delta[B8,B13,0] <= 86.5
 PM[B8,B13,1]: c[B8,1] - c[B13,1] + 10000 delta[B8,B13,1] <= 9988
 PM[B8,B14,0]: c[B8,0] - c[B14,0] + 100 delta[B8,B14,0] <= 87.5
 PM[B8,B14,1]: c[B8,1] - c[B14,1] + 10000 delta[B8,B14,1] <= 9984.5
 PM[B8,B15,0]: c[B8,0] - c[B15,0] + 100 delta[B8,B15,0] <= 88.5
 PM[B8,B15,1]: c[B8,1] - c[B15,1] + 10000 delta[B8,B15,1] <= 9976
 PM[B8,B16,0]: c[B8,0] - c[B16,0] + 100 delta[B8,B16,0] <= 90
 PM[B8,B16,1]: c[B8,1] - c[B16,1] + 10000 delta[B8,B16,1] <= 9983
 PM[B8,B17,0]: c[B8,0] - c[B17,0] + 100 delta[B8,B17,0] <= 80.5
 PM[B8,B17,1]: c[B8,1] - c[B17,1] + 10000 delta[B8,B17,1] <= 9966.5
 PM[B8,B18,0]: c[B8,0] - c[B18,0] + 100 delta[B8,B18,0] <= 82.5
 PM[B8,B18,1]: c[B8,1] - c[B18,1] + 10000 delta[B8,B18,1] <= 9988.5
 PM[B8,B19,0]: c[B8,0] - c[B19,0] + 100 delta[B8,B19,0] <= 90
 PM[B8,B19,1]: c[B8,1] - c[B19,1] + 10000 delta[B8,B19,1] <= 9987
 PM[B8,B20,0]: c[B8,0] - c[B20,0] + 100 delta[B8,B20,0] <= 88.5
 PM[B8,B20,1]: c[B8,1] - c[B20,1] + 10000 delta[B8,B20,1] <= 9977
 PM[B8,B21,0]: c[B8,0] - c[B21,0] + 100 delta[B8,B21,0] <= 85.5
 PM[B8,B21,1]: c[B8,1] - c[B21,1] + 10000 delta[B8,B21,1] <= 9982
 PM[B8,B22,0]: c[B8,0] - c[B22,0] + 100 delta[B8,B22,0] <= 92
 PM[B8,B22,1]: c[B8,1] - c[B22,1] + 10000 delta[B8,B22,1] <= 9972
 PM[B8,B23,0]: c[B8,0] - c[B23,0] + 100 delta[B8,B23,0] <= 92.5
 PM[B8,B23,1]: c[B8,1] - c[B23,1] + 10000 delta[B8,B23,1] <= 9984
 PM[B8,B24,0]: c[B8,0] - c[B24,0] + 100 delta[B8,B24,0] <= 82.5
 PM[B8,B24,1]: c[B8,1] - c[B24,1] + 10000 delta[B8,B24,1] <= 9969.5
 PM[B8,B25,0]: c[B8,0] - c[B25,0] + 100 delta[B8,B25,0] <= 88.5
 PM[B8,B25,1]: c[B8,1] - c[B25,1] + 10000 delta[B8,B25,1] <= 9987.5
 PM[B8,B26,0]: c[B8,0] - c[B26,0] + 100 delta[B8,B26,0] <= 93
 PM[B8,B26,1]: c[B8,1] - c[B26,1] + 10000 delta[B8,B26,1] <= 9988.5
 PM[B8,B27,0]: c[B8,0] - c[B27,0] + 100 delta[B8,B27,0] <= 91.5
 PM[B8,B27,1]: c[B8,1] - c[B27,1] + 10000 delta[B8,B27,1] <= 9980.5
 PM[B8,B28,0]: c[B8,0] - c[B28,0] + 100 delta[B8,B28,0] <= 88
 PM[B8,B28,1]: c[B8,1] - c[B28,1] + 10000 delta[B8,B28,1] <= 9988.5
 PM[B8,B29,0]: c[B8,0] - c[B29,0] + 100 delta[B8,B29,0] <= 77.5
 PM[B8,B29,1]: c[B8,1] - c[B29,1] + 10000 delta[B8,B29,1] <= 9977.5
 PM[B8,B30,0]: c[B8,0] - c[B30,0] + 100 delta[B8,B30,0] <= 90.5
 PM[B8,B30,1]: c[B8,1] - c[B30,1] + 10000 delta[B8,B30,1] <= 9982
 PM[B8,B31,0]: c[B8,0] - c[B31,0] + 100 delta[B8,B31,0] <= 87.5
 PM[B8,B31,1]: c[B8,1] - c[B31,1] + 10000 delta[B8,B31,1] <= 9983.5
 PM[B8,B32,0]: c[B8,0] - c[B32,0] + 100 delta[B8,B32,0] <= 80.5
 PM[B8,B32,1]: c[B8,1] - c[B32,1] + 10000 delta[B8,B32,1] <= 9983.5
 PM[B8,B33,0]: c[B8,0] - c[B33,0] + 100 delta[B8,B33,0] <= 80
 PM[B8,B33,1]: c[B8,1] - c[B33,1] + 10000 delta[B8,B33,1] <= 9989
 PM[B8,B34,0]: c[B8,0] - c[B34,0] + 100 delta[B8,B34,0] <= 94
 PM[B8,B34,1]: c[B8,1] - c[B34,1] + 10000 delta[B8,B34,1] <= 9985.5
 PM[B8,B35,0]: c[B8,0] - c[B35,0] + 100 delta[B8,B35,0] <= 81.5
 PM[B8,B35,1]: c[B8,1] - c[B35,1] + 10000 delta[B8,B35,1] <= 9978.5
 PM[B8,B36,0]: c[B8,0] - c[B36,0] + 100 delta[B8,B36,0] <= 91.5
 PM[B8,B36,1]: c[B8,1] - c[B36,1] + 10000 delta[B8,B36,1] <= 9986.5
 PM[B8,B37,0]: c[B8,0] - c[B37,0] + 100 delta[B8,B37,0] <= 88.5
 PM[B8,B37,1]: c[B8,1] - c[B37,1] + 10000 delta[B8,B37,1] <= 9988.5
 PM[B8,B38,0]: c[B8,0] - c[B38,0] + 100 delta[B8,B38,0] <= 80
 PM[B8,B38,1]: c[B8,1] - c[B38,1] + 10000 delta[B8,B38,1] <= 9985.5
 PM[B8,B39,0]: c[B8,0] - c[B39,0] + 100 delta[B8,B39,0] <= 77.5
 PM[B8,B39,1]: c[B8,1] - c[B39,1] + 10000 delta[B8,B39,1] <= 9981.5
 PM[B8,B40,0]: c[B8,0] - c[B40,0] + 100 delta[B8,B40,0] <= 82.5
 PM[B8,B40,1]: c[B8,1] - c[B40,1] + 10000 delta[B8,B40,1] <= 9989
 PM[B8,B41,0]: c[B8,0] - c[B41,0] + 100 delta[B8,B41,0] <= 92
 PM[B8,B41,1]: c[B8,1] - c[B41,1] + 10000 delta[B8,B41,1] <= 9987
 PM[B8,B42,0]: c[B8,0] - c[B42,0] + 100 delta[B8,B42,0] <= 89
 PM[B8,B42,1]: c[B8,1] - c[B42,1] + 10000 delta[B8,B42,1] <= 9972.5
 PM[B8,B43,0]: c[B8,0] - c[B43,0] + 100 delta[B8,B43,0] <= 83.5
 PM[B8,B43,1]: c[B8,1] - c[B43,1] + 10000 delta[B8,B43,1] <= 9981.5
 PM[B8,B44,0]: c[B8,0] - c[B44,0] + 100 delta[B8,B44,0] <= 88.5
 PM[B8,B44,1]: c[B8,1] - c[B44,1] + 10000 delta[B8,B44,1] <= 9982
 PM[B8,B45,0]: c[B8,0] - c[B45,0] + 100 delta[B8,B45,0] <= 91.5
 PM[B8,B45,1]: c[B8,1] - c[B45,1] + 10000 delta[B8,B45,1] <= 9975
 PM[B8,B46,0]: c[B8,0] - c[B46,0] + 100 delta[B8,B46,0] <= 84
 PM[B8,B46,1]: c[B8,1] - c[B46,1] + 10000 delta[B8,B46,1] <= 9988.5
 PM[B8,B47,0]: c[B8,0] - c[B47,0] + 100 delta[B8,B47,0] <= 90.5
 PM[B8,B47,1]: c[B8,1] - c[B47,1] + 10000 delta[B8,B47,1] <= 9986.5
 PM[B8,B48,0]: c[B8,0] - c[B48,0] + 100 delta[B8,B48,0] <= 89
 PM[B8,B48,1]: c[B8,1] - c[B48,1] + 10000 delta[B8,B48,1] <= 9987.5
 PM[B8,B49,0]: c[B8,0] - c[B49,0] + 100 delta[B8,B49,0] <= 90.5
 PM[B8,B49,1]: c[B8,1] - c[B49,1] + 10000 delta[B8,B49,1] <= 9984.5
 PM[B9,B0,0]: - c[B0,0] + c[B9,0] + 100 delta[B9,B0,0] <= 90
 PM[B9,B0,1]: - c[B0,1] + c[B9,1] + 10000 delta[B9,B0,1] <= 9984
 PM[B9,B1,0]: - c[B1,0] + c[B9,0] + 100 delta[B9,B1,0] <= 72.5
 PM[B9,B1,1]: - c[B1,1] + c[B9,1] + 10000 delta[B9,B1,1] <= 9989
 PM[B9,B2,0]: - c[B2,0] + c[B9,0] + 100 delta[B9,B2,0] <= 91.5
 PM[B9,B2,1]: - c[B2,1] + c[B9,1] + 10000 delta[B9,B2,1] <= 9990
 PM[B9,B3,0]: - c[B3,0] + c[B9,0] + 100 delta[B9,B3,0] <= 76.5
 PM[B9,B3,1]: - c[B3,1] + c[B9,1] + 10000 delta[B9,B3,1] <= 9985
 PM[B9,B4,0]: - c[B4,0] + c[B9,0] + 100 delta[B9,B4,0] <= 91.5
 PM[B9,B4,1]: - c[B4,1] + c[B9,1] + 10000 delta[B9,B4,1] <= 9989
 PM[B9,B5,0]: - c[B5,0] + c[B9,0] + 100 delta[B9,B5,0] <= 91.5
 PM[B9,B5,1]: - c[B5,1] + c[B9,1] + 10000 delta[B9,B5,1] <= 9992.5
 PM[B9,B6,0]: - c[B6,0] + c[B9,0] + 100 delta[B9,B6,0] <= 87
 PM[B9,B6,1]: - c[B6,1] + c[B9,1] + 10000 delta[B9,B6,1] <= 9991.5
 PM[B9,B7,0]: - c[B7,0] + c[B9,0] + 100 delta[B9,B7,0] <= 82
 PM[B9,B7,1]: - c[B7,1] + c[B9,1] + 10000 delta[B9,B7,1] <= 9991.5
 PM[B9,B8,0]: - c[B8,0] + c[B9,0] + 100 delta[B9,B8,0] <= 85
 PM[B9,B8,1]: - c[B8,1] + c[B9,1] + 10000 delta[B9,B8,1] <= 9984.5
 PM[B9,B10,0]: c[B9,0] - c[B10,0] + 100 delta[B9,B10,0] <= 89.5
 PM[B9,B10,1]: c[B9,1] - c[B10,1] + 10000 delta[B9,B10,1] <= 9990.5
 PM[B9,B11,0]: c[B9,0] - c[B11,0] + 100 delta[B9,B11,0] <= 86
 PM[B9,B11,1]: c[B9,1] - c[B11,1] + 10000 delta[B9,B11,1] <= 9984.5
 PM[B9,B12,0]: c[B9,0] - c[B12,0] + 100 delta[B9,B12,0] <= 85
 PM[B9,B12,1]: c[B9,1] - c[B12,1] + 10000 delta[B9,B12,1] <= 9988.5
 PM[B9,B13,0]: c[B9,0] - c[B13,0] + 100 delta[B9,B13,0] <= 84.5
 PM[B9,B13,1]: c[B9,1] - c[B13,1] + 10000 delta[B9,B13,1] <= 9991.5
 PM[B9,B14,0]: c[B9,0] - c[B14,0] + 100 delta[B9,B14,0] <= 85.5
 PM[B9,B14,1]: c[B9,1] - c[B14,1] + 10000 delta[B9,B14,1] <= 9988
 PM[B9,B15,0]: c[B9,0] - c[B15,0] + 100 delta[B9,B15,0] <= 86.5
 PM[B9,B15,1]: c[B9,1] - c[B15,1] + 10000 delta[B9,B15,1] <= 9979.5
 PM[B9,B16,0]: c[B9,0] - c[B16,0] + 100 delta[B9,B16,0] <= 88
 PM[B9,B16,1]: c[B9,1] - c[B16,1] + 10000 delta[B9,B16,1] <= 9986.5
 PM[B9,B17,0]: c[B9,0] - c[B17,0] + 100 delta[B9,B17,0] <= 78.5
 PM[B9,B17,1]: c[B9,1] - c[B17,1] + 10000 delta[B9,B17,1] <= 9970
 PM[B9,B18,0]: c[B9,0] - c[B18,0] + 100 delta[B9,B18,0] <= 80.5
 PM[B9,B18,1]: c[B9,1] - c[B18,1] + 10000 delta[B9,B18,1] <= 9992
 PM[B9,B19,0]: c[B9,0] - c[B19,0] + 100 delta[B9,B19,0] <= 88
 PM[B9,B19,1]: c[B9,1] - c[B19,1] + 10000 delta[B9,B19,1] <= 9990.5
 PM[B9,B20,0]: c[B9,0] - c[B20,0] + 100 delta[B9,B20,0] <= 86.5
 PM[B9,B20,1]: c[B9,1] - c[B20,1] + 10000 delta[B9,B20,1] <= 9980.5
 PM[B9,B21,0]: c[B9,0] - c[B21,0] + 100 delta[B9,B21,0] <= 83.5
 PM[B9,B21,1]: c[B9,1] - c[B21,1] + 10000 delta[B9,B21,1] <= 9985.5
 PM[B9,B22,0]: c[B9,0] - c[B22,0] + 100 delta[B9,B22,0] <= 90
 PM[B9,B22,1]: c[B9,1] - c[B22,1] + 10000 delta[B9,B22,1] <= 9975.5
 PM[B9,B23,0]: c[B9,0] - c[B23,0] + 100 delta[B9,B23,0] <= 90.5
 PM[B9,B23,1]: c[B9,1] - c[B23,1] + 10000 delta[B9,B23,1] <= 9987.5
 PM[B9,B24,0]: c[B9,0] - c[B24,0] + 100 delta[B9,B24,0] <= 80.5
 PM[B9,B24,1]: c[B9,1] - c[B24,1] + 10000 delta[B9,B24,1] <= 9973
 PM[B9,B25,0]: c[B9,0] - c[B25,0] + 100 delta[B9,B25,0] <= 86.5
 PM[B9,B25,1]: c[B9,1] - c[B25,1] + 10000 delta[B9,B25,1] <= 9991
 PM[B9,B26,0]: c[B9,0] - c[B26,0] + 100 delta[B9,B26,0] <= 91
 PM[B9,B26,1]: c[B9,1] - c[B26,1] + 10000 delta[B9,B26,1] <= 9992
 PM[B9,B27,0]: c[B9,0] - c[B27,0] + 100 delta[B9,B27,0] <= 89.5
 PM[B9,B27,1]: c[B9,1] - c[B27,1] + 10000 delta[B9,B27,1] <= 9984
 PM[B9,B28,0]: c[B9,0] - c[B28,0] + 100 delta[B9,B28,0] <= 86
 PM[B9,B28,1]: c[B9,1] - c[B28,1] + 10000 delta[B9,B28,1] <= 9992
 PM[B9,B29,0]: c[B9,0] - c[B29,0] + 100 delta[B9,B29,0] <= 75.5
 PM[B9,B29,1]: c[B9,1] - c[B29,1] + 10000 delta[B9,B29,1] <= 9981
 PM[B9,B30,0]: c[B9,0] - c[B30,0] + 100 delta[B9,B30,0] <= 88.5
 PM[B9,B30,1]: c[B9,1] - c[B30,1] + 10000 delta[B9,B30,1] <= 9985.5
 PM[B9,B31,0]: c[B9,0] - c[B31,0] + 100 delta[B9,B31,0] <= 85.5
 PM[B9,B31,1]: c[B9,1] - c[B31,1] + 10000 delta[B9,B31,1] <= 9987
 PM[B9,B32,0]: c[B9,0] - c[B32,0] + 100 delta[B9,B32,0] <= 78.5
 PM[B9,B32,1]: c[B9,1] - c[B32,1] + 10000 delta[B9,B32,1] <= 9987
 PM[B9,B33,0]: c[B9,0] - c[B33,0] + 100 delta[B9,B33,0] <= 78
 PM[B9,B33,1]: c[B9,1] - c[B33,1] + 10000 delta[B9,B33,1] <= 9992.5
 PM[B9,B34,0]: c[B9,0] - c[B34,0] + 100 delta[B9,B34,0] <= 92
 PM[B9,B34,1]: c[B9,1] - c[B34,1] + 10000 delta[B9,B34,1] <= 9989
 PM[B9,B35,0]: c[B9,0] - c[B35,0] + 100 delta[B9,B35,0] <= 79.5
 PM[B9,B35,1]: c[B9,1] - c[B35,1] + 10000 delta[B9,B35,1] <= 9982
 PM[B9,B36,0]: c[B9,0] - c[B36,0] + 100 delta[B9,B36,0] <= 89.5
 PM[B9,B36,1]: c[B9,1] - c[B36,1] + 10000 delta[B9,B36,1] <= 9990
 PM[B9,B37,0]: c[B9,0] - c[B37,0] + 100 delta[B9,B37,0] <= 86.5
 PM[B9,B37,1]: c[B9,1] - c[B37,1] + 10000 delta[B9,B37,1] <= 9992
 PM[B9,B38,0]: c[B9,0] - c[B38,0] + 100 delta[B9,B38,0] <= 78
 PM[B9,B38,1]: c[B9,1] - c[B38,1] + 10000 delta[B9,B38,1] <= 9989
 PM[B9,B39,0]: c[B9,0] - c[B39,0] + 100 delta[B9,B39,0] <= 75.5
 PM[B9,B39,1]: c[B9,1] - c[B39,1] + 10000 delta[B9,B39,1] <= 9985
 PM[B9,B40,0]: c[B9,0] - c[B40,0] + 100 delta[B9,B40,0] <= 80.5
 PM[B9,B40,1]: c[B9,1] - c[B40,1] + 10000 delta[B9,B40,1] <= 9992.5
 PM[B9,B41,0]: c[B9,0] - c[B41,0] + 100 delta[B9,B41,0] <= 90
 PM[B9,B41,1]: c[B9,1] - c[B41,1] + 10000 delta[B9,B41,1] <= 9990.5
 PM[B9,B42,0]: c[B9,0] - c[B42,0] + 100 delta[B9,B42,0] <= 87
 PM[B9,B42,1]: c[B9,1] - c[B42,1] + 10000 delta[B9,B42,1] <= 9976
 PM[B9,B43,0]: c[B9,0] - c[B43,0] + 100 delta[B9,B43,0] <= 81.5
 PM[B9,B43,1]: c[B9,1] - c[B43,1] + 10000 delta[B9,B43,1] <= 9985
 PM[B9,B44,0]: c[B9,0] - c[B44,0] + 100 delta[B9,B44,0] <= 86.5
 PM[B9,B44,1]: c[B9,1] - c[B44,1] + 10000 delta[B9,B44,1] <= 9985.5
 PM[B9,B45,0]: c[B9,0] - c[B45,0] + 100 delta[B9,B45,0] <= 89.5
 PM[B9,B45,1]: c[B9,1] - c[B45,1] + 10000 delta[B9,B45,1] <= 9978.5
 PM[B9,B46,0]: c[B9,0] - c[B46,0] + 100 delta[B9,B46,0] <= 82
 PM[B9,B46,1]: c[B9,1] - c[B46,1] + 10000 delta[B9,B46,1] <= 9992
 PM[B9,B47,0]: c[B9,0] - c[B47,0] + 100 delta[B9,B47,0] <= 88.5
 PM[B9,B47,1]: c[B9,1] - c[B47,1] + 10000 delta[B9,B47,1] <= 9990
 PM[B9,B48,0]: c[B9,0] - c[B48,0] + 100 delta[B9,B48,0] <= 87
 PM[B9,B48,1]: c[B9,1] - c[B48,1] + 10000 delta[B9,B48,1] <= 9991
 PM[B9,B49,0]: c[B9,0] - c[B49,0] + 100 delta[B9,B49,0] <= 88.5
 PM[B9,B49,1]: c[B9,1] - c[B49,1] + 10000 delta[B9,B49,1] <= 9988
 PM[B10,B0,0]: - c[B0,0] + c[B10,0] + 100 delta[B10,B0,0] <= 90.5
 PM[B10,B0,1]: - c[B0,1] + c[B10,1] + 9994 delta[B10,B0,1] <= 9976.5
 PM[B10,B1,0]: - c[B1,0] + c[B10,0] + 100 delta[B10,B1,0] <= 73
 PM[B10,B1,1]: - c[B1,1] + c[B10,1] + 10000 delta[B10,B1,1] <= 9981.5
 PM[B10,B2,0]: - c[B2,0] + c[B10,0] + 100 delta[B10,B2,0] <= 92
 PM[B10,B2,1]: - c[B2,1] + c[B10,1] + 10000 delta[B10,B2,1] <= 9982.5
 PM[B10,B3,0]: - c[B3,0] + c[B10,0] + 100 delta[B10,B3,0] <= 77
 PM[B10,B3,1]: - c[B3,1] + c[B10,1] + 9996 delta[B10,B3,1] <= 9977.5
 PM[B10,B4,0]: - c[B4,0] + c[B10,0] + 100 delta[B10,B4,0] <= 92
 PM[B10,B4,1]: - c[B4,1] + c[B10,1] + 10000 delta[B10,B4,1] <= 9981.5
 PM[B10,B5,0]: - c[B5,0] + c[B10,0] + 100 delta[B10,B5,0] <= 92
 PM[B10,B5,1]: - c[B5,1] + c[B10,1] + 10000 delta[B10,B5,1] <= 9985
 PM[B10,B6,0]: - c[B6,0] + c[B10,0] + 100 delta[B10,B6,0] <= 87.5
 PM[B10,B6,1]: - c[B6,1] + c[B10,1] + 10000 delta[B10,B6,1] <= 9984
 PM[B10,B7,0]: - c[B7,0] + c[B10,0] + 100 delta[B10,B7,0] <= 82.5
 PM[B10,B7,1]: - c[B7,1] + c[B10,1] + 10000 delta[B10,B7,1] <= 9984
 PM[B10,B8,0]: - c[B8,0] + c[B10,0] + 100 delta[B10,B8,0] <= 85.5
 PM[B10,B8,1]: - c[B8,1] + c[B10,1] + 9997 delta[B10,B8,1] <= 9977
 PM[B10,B9,0]: - c[B9,0] + c[B10,0] + 100 delta[B10,B9,0] <= 88.5
 PM[B10,B9,1]: - c[B9,1] + c[B10,1] + 10000 delta[B10,B9,1] <= 9983.5
 PM[B10,B11,0]: c[B10,0] - c[B11,0] + 100 delta[B10,B11,0] <= 86.5
 PM[B10,B11,1]: c[B10,1] - c[B11,1] + 9994 delta[B10,B11,1] <= 9977
 PM[B10,B12,0]: c[B10,0] - c[B12,0] + 100 delta[B10,B12,0] <= 85.5
 PM[B10,B12,1]: c[B10,1] - c[B12,1] + 9999 delta[B10,B12,1] <= 9981
 PM[B10,B13,0]: c[B10,0] - c[B13,0] + 100 delta[B10,B13,0] <= 85
 PM[B10,B13,1]: c[B10,1] - c[B13,1] + 10000 delta[B10,B13,1] <= 9984
 PM[B10,B14,0]: c[B10,0] - c[B14,0] + 100 delta[B10,B14,0] <= 86
 PM[B10,B14,1]: c[B10,1] - c[B14,1] + 9997 delta[B10,B14,1] <= 9980.5
 PM[B10,B15,0]: c[B10,0] - c[B15,0] + 100 delta[B10,B15,0] <= 87
 PM[B10,B15,1]: c[B10,1] - c[B15,1] + 9993 delta[B10,B15,1] <= 9972
 PM[B10,B16,0]: c[B10,0] - c[B16,0] + 100 delta[B10,B16,0] <= 88.5
 PM[B10,B16,1]: c[B10,1] - c[B16,1] + 9995 delta[B10,B16,1] <= 9979
 PM[B10,B17,0]: c[B10,0] - c[B17,0] + 100 delta[B10,B17,0] <= 79
 PM[B10,B17,1]: c[B10,1] - c[B17,1] + 9993 delta[B10,B17,1] <= 9962.5
 PM[B10,B18,0]: c[B10,0] - c[B18,0] + 100 delta[B10,B18,0] <= 81
 PM[B10,B18,1]: c[B10,1] - c[B18,1] + 10000 delta[B10,B18,1] <= 9984.5
 PM[B10,B19,0]: c[B10,0] - c[B19,0] + 100 delta[B10,B19,0] <= 88.5
 PM[B10,B19,1]: c[B10,1] - c[B19,1] + 10000 delta[B10,B19,1] <= 9983
 PM[B10,B20,0]: c[B10,0] - c[B20,0] + 100 delta[B10,B20,0] <= 87
 PM[B10,B20,1]: c[B10,1] - c[B20,1] + 9993 delta[B10,B20,1] <= 9973
 PM[B10,B21,0]: c[B10,0] - c[B21,0] + 100 delta[B10,B21,0] <= 84
 PM[B10,B21,1]: c[B10,1] - c[B21,1] + 9994 delta[B10,B21,1] <= 9978
 PM[B10,B22,0]: c[B10,0] - c[B22,0] + 100 delta[B10,B22,0] <= 90.5
 PM[B10,B22,1]: c[B10,1] - c[B22,1] + 9993 delta[B10,B22,1] <= 9968
 PM[B10,B23,0]: c[B10,0] - c[B23,0] + 100 delta[B10,B23,0] <= 91
 PM[B10,B23,1]: c[B10,1] - c[B23,1] + 10000 delta[B10,B23,1] <= 9980
 PM[B10,B24,0]: c[B10,0] - c[B24,0] + 100 delta[B10,B24,0] <= 81
 PM[B10,B24,1]: c[B10,1] - c[B24,1] + 9993 delta[B10,B24,1] <= 9965.5
 PM[B10,B25,0]: c[B10,0] - c[B25,0] + 100 delta[B10,B25,0] <= 87
 PM[B10,B25,1]: c[B10,1] - c[B25,1] + 10000 delta[B10,B25,1] <= 9983.5
 PM[B10,B26,0]: c[B10,0] - c[B26,0] + 100 delta[B10,B26,0] <= 91.5
 PM[B10,B26,1]: c[B10,1] - c[B26,1] + 10000 delta[B10,B26,1] <= 9984.5
 PM[B10,B27,0]: c[B10,0] - c[B27,0] + 100 delta[B10,B27,0] <= 90
 PM[B10,B27,1]: c[B10,1] - c[B27,1] + 9998 delta[B10,B27,1] <= 9976.5
 PM[B10,B28,0]: c[B10,0] - c[B28,0] + 100 delta[B10,B28,0] <= 86.5
 PM[B10,B28,1]: c[B10,1] - c[B28,1] + 10000 delta[B10,B28,1] <= 9984.5
 PM[B10,B29,0]: c[B10,0] - c[B29,0] + 100 delta[B10,B29,0] <= 76
 PM[B10,B29,1]: c[B10,1] - c[B29,1] + 9993 delta[B10,B29,1] <= 9973.5
 PM[B10,B30,0]: c[B10,0] - c[B30,0] + 100 delta[B10,B30,0] <= 89
 PM[B10,B30,1]: c[B10,1] - c[B30,1] + 10000 delta[B10,B30,1] <= 9978
 PM[B10,B31,0]: c[B10,0] - c[B31,0] + 100 delta[B10,B31,0] <= 86
 PM[B10,B31,1]: c[B10,1] - c[B31,1] + 10000 delta[B10,B31,1] <= 9979.5
 PM[B10,B32,0]: c[B10,0] - c[B32,0] + 100 delta[B10,B32,0] <= 79
 PM[B10,B32,1]: c[B10,1] - c[B32,1] + 9996 delta[B10,B32,1] <= 9979.5
 PM[B10,B33,0]: c[B10,0] - c[B33,0] + 100 delta[B10,B33,0] <= 78.5
 PM[B10,B33,1]: c[B10,1] - c[B33,1] + 10000 delta[B10,B33,1] <= 9985
 PM[B10,B34,0]: c[B10,0] - c[B34,0] + 100 delta[B10,B34,0] <= 92.5
 PM[B10,B34,1]: c[B10,1] - c[B34,1] + 10000 delta[B10,B34,1] <= 9981.5
 PM[B10,B35,0]: c[B10,0] - c[B35,0] + 100 delta[B10,B35,0] <= 80
 PM[B10,B35,1]: c[B10,1] - c[B35,1] + 9993 delta[B10,B35,1] <= 9974.5
 PM[B10,B36,0]: c[B10,0] - c[B36,0] + 100 delta[B10,B36,0] <= 90
 PM[B10,B36,1]: c[B10,1] - c[B36,1] + 10000 delta[B10,B36,1] <= 9982.5
 PM[B10,B37,0]: c[B10,0] - c[B37,0] + 100 delta[B10,B37,0] <= 87
 PM[B10,B37,1]: c[B10,1] - c[B37,1] + 10000 delta[B10,B37,1] <= 9984.5
 PM[B10,B38,0]: c[B10,0] - c[B38,0] + 100 delta[B10,B38,0] <= 78.5
 PM[B10,B38,1]: c[B10,1] - c[B38,1] + 10000 delta[B10,B38,1] <= 9981.5
 PM[B10,B39,0]: c[B10,0] - c[B39,0] + 100 delta[B10,B39,0] <= 76
 PM[B10,B39,1]: c[B10,1] - c[B39,1] + 10000 delta[B10,B39,1] <= 9977.5
 PM[B10,B40,0]: c[B10,0] - c[B40,0] + 100 delta[B10,B40,0] <= 81
 PM[B10,B40,1]: c[B10,1] - c[B40,1] + 10000 delta[B10,B40,1] <= 9985
 PM[B10,B41,0]: c[B10,0] - c[B41,0] + 100 delta[B10,B41,0] <= 90.5
 PM[B10,B41,1]: c[B10,1] - c[B41,1] + 10000 delta[B10,B41,1] <= 9983
 PM[B10,B42,0]: c[B10,0] - c[B42,0] + 100 delta[B10,B42,0] <= 87.5
 PM[B10,B42,1]: c[B10,1] - c[B42,1] + 9993 delta[B10,B42,1] <= 9968.5
 PM[B10,B43,0]: c[B10,0] - c[B43,0] + 100 delta[B10,B43,0] <= 82
 PM[B10,B43,1]: c[B10,1] - c[B43,1] + 9994 delta[B10,B43,1] <= 9977.5
 PM[B10,B44,0]: c[B10,0] - c[B44,0] + 100 delta[B10,B44,0] <= 87
 PM[B10,B44,1]: c[B10,1] - c[B44,1] + 9995 delta[B10,B44,1] <= 9978
 PM[B10,B45,0]: c[B10,0] - c[B45,0] + 100 delta[B10,B45,0] <= 90
 PM[B10,B45,1]: c[B10,1] - c[B45,1] + 9993 delta[B10,B45,1] <= 9971
 PM[B10,B46,0]: c[B10,0] - c[B46,0] + 100 delta[B10,B46,0] <= 82.5
 PM[B10,B46,1]: c[B10,1] - c[B46,1] + 10000 delta[B10,B46,1] <= 9984.5
 PM[B10,B47,0]: c[B10,0] - c[B47,0] + 100 delta[B10,B47,0] <= 89
 PM[B10,B47,1]: c[B10,1] - c[B47,1] + 10000 delta[B10,B47,1] <= 9982.5
 PM[B10,B48,0]: c[B10,0] - c[B48,0] + 100 delta[B10,B48,0] <= 87.5
 PM[B10,B48,1]: c[B10,1] - c[B48,1] + 10000 delta[B10,B48,1] <= 9983.5
 PM[B10,B49,0]: c[B10,0] - c[B49,0] + 100 delta[B10,B49,0] <= 89
 PM[B10,B49,1]: c[B10,1] - c[B49,1] + 9996 delta[B10,B49,1] <= 9980.5
 PM[B11,B0,0]: - c[B0,0] + c[B11,0] + 100 delta[B11,B0,0] <= 91
 PM[B11,B0,1]: - c[B0,1] + c[B11,1] + 10000 delta[B11,B0,1] <= 9983.5
 PM[B11,B1,0]: - c[B1,0] + c[B11,0] + 100 delta[B11,B1,0] <= 73.5
 PM[B11,B1,1]: - c[B1,1] + c[B11,1] + 10000 delta[B11,B1,1] <= 9988.5
 PM[B11,B2,0]: - c[B2,0] + c[B11,0] + 100 delta[B11,B2,0] <= 92.5
 PM[B11,B2,1]: - c[B2,1] + c[B11,1] + 10000 delta[B11,B2,1] <= 9989.5
 PM[B11,B3,0]: - c[B3,0] + c[B11,0] + 100 delta[B11,B3,0] <= 77.5
 PM[B11,B3,1]: - c[B3,1] + c[B11,1] + 10000 delta[B11,B3,1] <= 9984.5
 PM[B11,B4,0]: - c[B4,0] + c[B11,0] + 100 delta[B11,B4,0] <= 92.5
 PM[B11,B4,1]: - c[B4,1] + c[B11,1] + 10000 delta[B11,B4,1] <= 9988.5
 PM[B11,B5,0]: - c[B5,0] + c[B11,0] + 100 delta[B11,B5,0] <= 92.5
 PM[B11,B5,1]: - c[B5,1] + c[B11,1] + 10000 delta[B11,B5,1] <= 9992
 PM[B11,B6,0]: - c[B6,0] + c[B11,0] + 100 delta[B11,B6,0] <= 88
 PM[B11,B6,1]: - c[B6,1] + c[B11,1] + 10000 delta[B11,B6,1] <= 9991
 PM[B11,B7,0]: - c[B7,0] + c[B11,0] + 100 delta[B11,B7,0] <= 83
 PM[B11,B7,1]: - c[B7,1] + c[B11,1] + 10000 delta[B11,B7,1] <= 9991
 PM[B11,B8,0]: - c[B8,0] + c[B11,0] + 100 delta[B11,B8,0] <= 86
 PM[B11,B8,1]: - c[B8,1] + c[B11,1] + 10000 delta[B11,B8,1] <= 9984
 PM[B11,B9,0]: - c[B9,0] + c[B11,0] + 100 delta[B11,B9,0] <= 89
 PM[B11,B9,1]: - c[B9,1] + c[B11,1] + 10000 delta[B11,B9,1] <= 9990.5
 PM[B11,B10,0]: - c[B10,0] + c[B11,0] + 100 delta[B11,B10,0] <= 90.5
 PM[B11,B10,1]: - c[B10,1] + c[B11,1] + 10000 delta[B11,B10,1] <= 9990
 PM[B11,B12,0]: c[B11,0] - c[B12,0] + 100 delta[B11,B12,0] <= 86
 PM[B11,B12,1]: c[B11,1] - c[B12,1] + 10000 delta[B11,B12,1] <= 9988
 PM[B11,B13,0]: c[B11,0] - c[B13,0] + 100 delta[B11,B13,0] <= 85.5
 PM[B11,B13,1]: c[B11,1] - c[B13,1] + 10000 delta[B11,B13,1] <= 9991
 PM[B11,B14,0]: c[B11,0] - c[B14,0] + 100 delta[B11,B14,0] <= 86.5
 PM[B11,B14,1]: c[B11,1] - c[B14,1] + 10000 delta[B11,B14,1] <= 9987.5
 PM[B11,B15,0]: c[B11,0] - c[B15,0] + 100 delta[B11,B15,0] <= 87.5
 PM[B11,B15,1]: c[B11,1] - c[B15,1] + 10000 delta[B11,B15,1] <= 9979
 PM[B11,B16,0]: c[B11,0] - c[B16,0] + 100 delta[B11,B16,0] <= 89
 PM[B11,B16,1]: c[B11,1] - c[B16,1] + 10000 delta[B11,B16,1] <= 9986
 PM[B11,B17,0]: c[B11,0] - c[B17,0] + 100 delta[B11,B17,0] <= 79.5
 PM[B11,B17,1]: c[B11,1] - c[B17,1] + 10000 delta[B11,B17,1] <= 9969.5
 PM[B11,B18,0]: c[B11,0] - c[B18,0] + 100 delta[B11,B18,0] <= 81.5
 PM[B11,B18,1]: c[B11,1] - c[B18,1] + 10000 delta[B11,B18,1] <= 9991.5
 PM[B11,B19,0]: c[B11,0] - c[B19,0] + 100 delta[B11,B19,0] <= 89
 PM[B11,B19,1]: c[B11,1] - c[B19,1] + 10000 delta[B11,B19,1] <= 9990
 PM[B11,B20,0]: c[B11,0] - c[B20,0] + 100 delta[B11,B20,0] <= 87.5
 PM[B11,B20,1]: c[B11,1] - c[B20,1] + 10000 delta[B11,B20,1] <= 9980
 PM[B11,B21,0]: c[B11,0] - c[B21,0] + 100 delta[B11,B21,0] <= 84.5
 PM[B11,B21,1]: c[B11,1] - c[B21,1] + 10000 delta[B11,B21,1] <= 9985
 PM[B11,B22,0]: c[B11,0] - c[B22,0] + 100 delta[B11,B22,0] <= 91
 PM[B11,B22,1]: c[B11,1] - c[B22,1] + 10000 delta[B11,B22,1] <= 9975
 PM[B11,B23,0]: c[B11,0] - c[B23,0] + 100 delta[B11,B23,0] <= 91.5
 PM[B11,B23,1]: c[B11,1] - c[B23,1] + 10000 delta[B11,B23,1] <= 9987
 PM[B11,B24,0]: c[B11,0] - c[B24,0] + 100 delta[B11,B24,0] <= 81.5
 PM[B11,B24,1]: c[B11,1] - c[B24,1] + 10000 delta[B11,B24,1] <= 9972.5
 PM[B11,B25,0]: c[B11,0] - c[B25,0] + 100 delta[B11,B25,0] <= 87.5
 PM[B11,B25,1]: c[B11,1] - c[B25,1] + 10000 delta[B11,B25,1] <= 9990.5
 PM[B11,B26,0]: c[B11,0] - c[B26,0] + 100 delta[B11,B26,0] <= 92
 PM[B11,B26,1]: c[B11,1] - c[B26,1] + 10000 delta[B11,B26,1] <= 9991.5
 PM[B11,B27,0]: c[B11,0] - c[B27,0] + 100 delta[B11,B27,0] <= 90.5
 PM[B11,B27,1]: c[B11,1] - c[B27,1] + 10000 delta[B11,B27,1] <= 9983.5
 PM[B11,B28,0]: c[B11,0] - c[B28,0] + 100 delta[B11,B28,0] <= 87
 PM[B11,B28,1]: c[B11,1] - c[B28,1] + 10000 delta[B11,B28,1] <= 9991.5
 PM[B11,B29,0]: c[B11,0] - c[B29,0] + 100 delta[B11,B29,0] <= 76.5
 PM[B11,B29,1]: c[B11,1] - c[B29,1] + 10000 delta[B11,B29,1] <= 9980.5
 PM[B11,B30,0]: c[B11,0] - c[B30,0] + 100 delta[B11,B30,0] <= 89.5
 PM[B11,B30,1]: c[B11,1] - c[B30,1] + 10000 delta[B11,B30,1] <= 9985
 PM[B11,B31,0]: c[B11,0] - c[B31,0] + 100 delta[B11,B31,0] <= 86.5
 PM[B11,B31,1]: c[B11,1] - c[B31,1] + 10000 delta[B11,B31,1] <= 9986.5
 PM[B11,B32,0]: c[B11,0] - c[B32,0] + 100 delta[B11,B32,0] <= 79.5
 PM[B11,B32,1]: c[B11,1] - c[B32,1] + 10000 delta[B11,B32,1] <= 9986.5
 PM[B11,B33,0]: c[B11,0] - c[B33,0] + 100 delta[B11,B33,0] <= 79
 PM[B11,B33,1]: c[B11,1] - c[B33,1] + 10000 delta[B11,B33,1] <= 9992
 PM[B11,B34,0]: c[B11,0] - c[B34,0] + 100 delta[B11,B34,0] <= 93
 PM[B11,B34,1]: c[B11,1] - c[B34,1] + 10000 delta[B11,B34,1] <= 9988.5
 PM[B11,B35,0]: c[B11,0] - c[B35,0] + 100 delta[B11,B35,0] <= 80.5
 PM[B11,B35,1]: c[B11,1] - c[B35,1] + 10000 delta[B11,B35,1] <= 9981.5
 PM[B11,B36,0]: c[B11,0] - c[B36,0] + 100 delta[B11,B36,0] <= 90.5
 PM[B11,B36,1]: c[B11,1] - c[B36,1] + 10000 delta[B11,B36,1] <= 9989.5
 PM[B11,B37,0]: c[B11,0] - c[B37,0] + 100 delta[B11,B37,0] <= 87.5
 PM[B11,B37,1]: c[B11,1] - c[B37,1] + 10000 delta[B11,B37,1] <= 9991.5
 PM[B11,B38,0]: c[B11,0] - c[B38,0] + 100 delta[B11,B38,0] <= 79
 PM[B11,B38,1]: c[B11,1] - c[B38,1] + 10000 delta[B11,B38,1] <= 9988.5
 PM[B11,B39,0]: c[B11,0] - c[B39,0] + 100 delta[B11,B39,0] <= 76.5
 PM[B11,B39,1]: c[B11,1] - c[B39,1] + 10000 delta[B11,B39,1] <= 9984.5
 PM[B11,B40,0]: c[B11,0] - c[B40,0] + 100 delta[B11,B40,0] <= 81.5
 PM[B11,B40,1]: c[B11,1] - c[B40,1] + 10000 delta[B11,B40,1] <= 9992
 PM[B11,B41,0]: c[B11,0] - c[B41,0] + 100 delta[B11,B41,0] <= 91
 PM[B11,B41,1]: c[B11,1] - c[B41,1] + 10000 delta[B11,B41,1] <= 9990
 PM[B11,B42,0]: c[B11,0] - c[B42,0] + 100 delta[B11,B42,0] <= 88
 PM[B11,B42,1]: c[B11,1] - c[B42,1] + 10000 delta[B11,B42,1] <= 9975.5
 PM[B11,B43,0]: c[B11,0] - c[B43,0] + 100 delta[B11,B43,0] <= 82.5
 PM[B11,B43,1]: c[B11,1] - c[B43,1] + 10000 delta[B11,B43,1] <= 9984.5
 PM[B11,B44,0]: c[B11,0] - c[B44,0] + 100 delta[B11,B44,0] <= 87.5
 PM[B11,B44,1]: c[B11,1] - c[B44,1] + 10000 delta[B11,B44,1] <= 9985
 PM[B11,B45,0]: c[B11,0] - c[B45,0] + 100 delta[B11,B45,0] <= 90.5
 PM[B11,B45,1]: c[B11,1] - c[B45,1] + 10000 delta[B11,B45,1] <= 9978
 PM[B11,B46,0]: c[B11,0] - c[B46,0] + 100 delta[B11,B46,0] <= 83
 PM[B11,B46,1]: c[B11,1] - c[B46,1] + 10000 delta[B11,B46,1] <= 9991.5
 PM[B11,B47,0]: c[B11,0] - c[B47,0] + 100 delta[B11,B47,0] <= 89.5
 PM[B11,B47,1]: c[B11,1] - c[B47,1] + 10000 delta[B11,B47,1] <= 9989.5
 PM[B11,B48,0]: c[B11,0] - c[B48,0] + 100 delta[B11,B48,0] <= 88
 PM[B11,B48,1]: c[B11,1] - c[B48,1] + 10000 delta[B11,B48,1] <= 9990.5
 PM[B11,B49,0]: c[B11,0] - c[B49,0] + 100 delta[B11,B49,0] <= 89.5
 PM[B11,B49,1]: c[B11,1] - c[B49,1] + 10000 delta[B11,B49,1] <= 9987.5
 PM[B12,B0,0]: - c[B0,0] + c[B12,0] + 100 delta[B12,B0,0] <= 79
 PM[B12,B0,1]: - c[B0,1] + c[B12,1] + 10000 delta[B12,B0,1] <= 9982.5
 PM[B12,B1,0]: - c[B1,0] + c[B12,0] + 93 delta[B12,B1,0] <= 61.5
 PM[B12,B1,1]: - c[B1,1] + c[B12,1] + 10000 delta[B12,B1,1] <= 9987.5
 PM[B12,B2,0]: - c[B2,0] + c[B12,0] + 100 delta[B12,B2,0] <= 80.5
 PM[B12,B2,1]: - c[B2,1] + c[B12,1] + 10000 delta[B12,B2,1] <= 9988.5
 PM[B12,B3,0]: - c[B3,0] + c[B12,0] + 93 delta[B12,B3,0] <= 65.5
 PM[B12,B3,1]: - c[B3,1] + c[B12,1] + 10000 delta[B12,B3,1] <= 9983.5
 PM[B12,B4,0]: - c[B4,0] + c[B12,0] + 100 delta[B12,B4,0] <= 80.5
 PM[B12,B4,1]: - c[B4,1] + c[B12,1] + 10000 delta[B12,B4,1] <= 9987.5
 PM[B12,B5,0]: - c[B5,0] + c[B12,0] + 100 delta[B12,B5,0] <= 80.5
 PM[B12,B5,1]: - c[B5,1] + c[B12,1] + 10000 delta[B12,B5,1] <= 9991
 PM[B12,B6,0]: - c[B6,0] + c[B12,0] + 100 delta[B12,B6,0] <= 76
 PM[B12,B6,1]: - c[B6,1] + c[B12,1] + 10000 delta[B12,B6,1] <= 9990
 PM[B12,B7,0]: - c[B7,0] + c[B12,0] + 95 delta[B12,B7,0] <= 71
 PM[B12,B7,1]: - c[B7,1] + c[B12,1] + 10000 delta[B12,B7,1] <= 9990
 PM[B12,B8,0]: - c[B8,0] + c[B12,0] + 94 delta[B12,B8,0] <= 74
 PM[B12,B8,1]: - c[B8,1] + c[B12,1] + 10000 delta[B12,B8,1] <= 9983
 PM[B12,B9,0]: - c[B9,0] + c[B12,0] + 99 delta[B12,B9,0] <= 77
 PM[B12,B9,1]: - c[B9,1] + c[B12,1] + 10000 delta[B12,B9,1] <= 9989.5
 PM[B12,B10,0]: - c[B10,0] + c[B12,0] + 100 delta[B12,B10,0] <= 78.5
 PM[B12,B10,1]: - c[B10,1] + c[B12,1] + 10000 delta[B12,B10,1] <= 9989
 PM[B12,B11,0]: - c[B11,0] + c[B12,0] + 96 delta[B12,B11,0] <= 75
 PM[B12,B11,1]: - c[B11,1] + c[B12,1] + 10000 delta[B12,B11,1] <= 9983
 PM[B12,B13,0]: c[B12,0] - c[B13,0] + 97 delta[B12,B13,0] <= 73.5
 PM[B12,B13,1]: c[B12,1] - c[B13,1] + 10000 delta[B12,B13,1] <= 9990
 PM[B12,B14,0]: c[B12,0] - c[B14,0] + 98 delta[B12,B14,0] <= 74.5
 PM[B12,B14,1]: c[B12,1] - c[B14,1] + 10000 delta[B12,B14,1] <= 9986.5
 PM[B12,B15,0]: c[B12,0] - c[B15,0] + 100 delta[B12,B15,0] <= 75.5
 PM[B12,B15,1]: c[B12,1] - c[B15,1] + 10000 delta[B12,B15,1] <= 9978
 PM[B12,B16,0]: c[B12,0] - c[B16,0] + 100 delta[B12,B16,0] <= 77
 PM[B12,B16,1]: c[B12,1] - c[B16,1] + 10000 delta[B12,B16,1] <= 9985
 PM[B12,B17,0]: c[B12,0] - c[B17,0] + 93 delta[B12,B17,0] <= 67.5
 PM[B12,B17,1]: c[B12,1] - c[B17,1] + 10000 delta[B12,B17,1] <= 9968.5
 PM[B12,B18,0]: c[B12,0] - c[B18,0] + 96 delta[B12,B18,0] <= 69.5
 PM[B12,B18,1]: c[B12,1] - c[B18,1] + 10000 delta[B12,B18,1] <= 9990.5
 PM[B12,B19,0]: c[B12,0] - c[B19,0] + 100 delta[B12,B19,0] <= 77
 PM[B12,B19,1]: c[B12,1] - c[B19,1] + 10000 delta[B12,B19,1] <= 9989
 PM[B12,B20,0]: c[B12,0] - c[B20,0] + 100 delta[B12,B20,0] <= 75.5
 PM[B12,B20,1]: c[B12,1] - c[B20,1] + 10000 delta[B12,B20,1] <= 9979
 PM[B12,B21,0]: c[B12,0] - c[B21,0] + 100 delta[B12,B21,0] <= 72.5
 PM[B12,B21,1]: c[B12,1] - c[B21,1] + 10000 delta[B12,B21,1] <= 9984
 PM[B12,B22,0]: c[B12,0] - c[B22,0] + 100 delta[B12,B22,0] <= 79
 PM[B12,B22,1]: c[B12,1] - c[B22,1] + 10000 delta[B12,B22,1] <= 9974
 PM[B12,B23,0]: c[B12,0] - c[B23,0] + 100 delta[B12,B23,0] <= 79.5
 PM[B12,B23,1]: c[B12,1] - c[B23,1] + 10000 delta[B12,B23,1] <= 9986
 PM[B12,B24,0]: c[B12,0] - c[B24,0] + 93 delta[B12,B24,0] <= 69.5
 PM[B12,B24,1]: c[B12,1] - c[B24,1] + 10000 delta[B12,B24,1] <= 9971.5
 PM[B12,B25,0]: c[B12,0] - c[B25,0] + 100 delta[B12,B25,0] <= 75.5
 PM[B12,B25,1]: c[B12,1] - c[B25,1] + 10000 delta[B12,B25,1] <= 9989.5
 PM[B12,B26,0]: c[B12,0] - c[B26,0] + 100 delta[B12,B26,0] <= 80
 PM[B12,B26,1]: c[B12,1] - c[B26,1] + 10000 delta[B12,B26,1] <= 9990.5
 PM[B12,B27,0]: c[B12,0] - c[B27,0] + 99 delta[B12,B27,0] <= 78.5
 PM[B12,B27,1]: c[B12,1] - c[B27,1] + 10000 delta[B12,B27,1] <= 9982.5
 PM[B12,B28,0]: c[B12,0] - c[B28,0] + 100 delta[B12,B28,0] <= 75
 PM[B12,B28,1]: c[B12,1] - c[B28,1] + 10000 delta[B12,B28,1] <= 9990.5
 PM[B12,B29,0]: c[B12,0] - c[B29,0] + 93 delta[B12,B29,0] <= 64.5
 PM[B12,B29,1]: c[B12,1] - c[B29,1] + 10000 delta[B12,B29,1] <= 9979.5
 PM[B12,B30,0]: c[B12,0] - c[B30,0] + 97 delta[B12,B30,0] <= 77.5
 PM[B12,B30,1]: c[B12,1] - c[B30,1] + 10000 delta[B12,B30,1] <= 9984
 PM[B12,B31,0]: c[B12,0] - c[B31,0] + 100 delta[B12,B31,0] <= 74.5
 PM[B12,B31,1]: c[B12,1] - c[B31,1] + 10000 delta[B12,B31,1] <= 9985.5
 PM[B12,B32,0]: c[B12,0] - c[B32,0] + 93 delta[B12,B32,0] <= 67.5
 PM[B12,B32,1]: c[B12,1] - c[B32,1] + 10000 delta[B12,B32,1] <= 9985.5
 PM[B12,B33,0]: c[B12,0] - c[B33,0] + 93 delta[B12,B33,0] <= 67
 PM[B12,B33,1]: c[B12,1] - c[B33,1] + 10000 delta[B12,B33,1] <= 9991
 PM[B12,B34,0]: c[B12,0] - c[B34,0] + 100 delta[B12,B34,0] <= 81
 PM[B12,B34,1]: c[B12,1] - c[B34,1] + 10000 delta[B12,B34,1] <= 9987.5
 PM[B12,B35,0]: c[B12,0] - c[B35,0] + 93 delta[B12,B35,0] <= 68.5
 PM[B12,B35,1]: c[B12,1] - c[B35,1] + 10000 delta[B12,B35,1] <= 9980.5
 PM[B12,B36,0]: c[B12,0] - c[B36,0] + 100 delta[B12,B36,0] <= 78.5
 PM[B12,B36,1]: c[B12,1] - c[B36,1] + 10000 delta[B12,B36,1] <= 9988.5
 PM[B12,B37,0]: c[B12,0] - c[B37,0] + 95 delta[B12,B37,0] <= 75.5
 PM[B12,B37,1]: c[B12,1] - c[B37,1] + 10000 delta[B12,B37,1] <= 9990.5
 PM[B12,B38,0]: c[B12,0] - c[B38,0] + 93 delta[B12,B38,0] <= 67
 PM[B12,B38,1]: c[B12,1] - c[B38,1] + 10000 delta[B12,B38,1] <= 9987.5
 PM[B12,B39,0]: c[B12,0] - c[B39,0] + 93 delta[B12,B39,0] <= 64.5
 PM[B12,B39,1]: c[B12,1] - c[B39,1] + 10000 delta[B12,B39,1] <= 9983.5
 PM[B12,B40,0]: c[B12,0] - c[B40,0] + 93 delta[B12,B40,0] <= 69.5
 PM[B12,B40,1]: c[B12,1] - c[B40,1] + 10000 delta[B12,B40,1] <= 9991
 PM[B12,B41,0]: c[B12,0] - c[B41,0] + 100 delta[B12,B41,0] <= 79
 PM[B12,B41,1]: c[B12,1] - c[B41,1] + 10000 delta[B12,B41,1] <= 9989
 PM[B12,B42,0]: c[B12,0] - c[B42,0] + 100 delta[B12,B42,0] <= 76
 PM[B12,B42,1]: c[B12,1] - c[B42,1] + 10000 delta[B12,B42,1] <= 9974.5
 PM[B12,B43,0]: c[B12,0] - c[B43,0] + 95 delta[B12,B43,0] <= 70.5
 PM[B12,B43,1]: c[B12,1] - c[B43,1] + 10000 delta[B12,B43,1] <= 9983.5
 PM[B12,B44,0]: c[B12,0] - c[B44,0] + 100 delta[B12,B44,0] <= 75.5
 PM[B12,B44,1]: c[B12,1] - c[B44,1] + 10000 delta[B12,B44,1] <= 9984
 PM[B12,B45,0]: c[B12,0] - c[B45,0] + 100 delta[B12,B45,0] <= 78.5
 PM[B12,B45,1]: c[B12,1] - c[B45,1] + 10000 delta[B12,B45,1] <= 9977
 PM[B12,B46,0]: c[B12,0] - c[B46,0] + 93 delta[B12,B46,0] <= 71
 PM[B12,B46,1]: c[B12,1] - c[B46,1] + 10000 delta[B12,B46,1] <= 9990.5
 PM[B12,B47,0]: c[B12,0] - c[B47,0] + 100 delta[B12,B47,0] <= 77.5
 PM[B12,B47,1]: c[B12,1] - c[B47,1] + 10000 delta[B12,B47,1] <= 9988.5
 PM[B12,B48,0]: c[B12,0] - c[B48,0] + 100 delta[B12,B48,0] <= 76
 PM[B12,B48,1]: c[B12,1] - c[B48,1] + 10000 delta[B12,B48,1] <= 9989.5
 PM[B12,B49,0]: c[B12,0] - c[B49,0] + 100 delta[B12,B49,0] <= 77.5
 PM[B12,B49,1]: c[B12,1] - c[B49,1] + 10000 delta[B12,B49,1] <= 9986.5
 PM[B13,B0,0]: - c[B0,0] + c[B13,0] + 100 delta[B13,B0,0] <= 88.5
 PM[B13,B0,1]: - c[B0,1] + c[B13,1] + 9999 delta[B13,B0,1] <= 9983.5
 PM[B13,B1,0]: - c[B1,0] + c[B13,0] + 100 delta[B13,B1,0] <= 71
 PM[B13,B1,1]: - c[B1,1] + c[B13,1] + 10000 delta[B13,B1,1] <= 9988.5
 PM[B13,B2,0]: - c[B2,0] + c[B13,0] + 100 delta[B13,B2,0] <= 90
 PM[B13,B2,1]: - c[B2,1] + c[B13,1] + 10000 delta[B13,B2,1] <= 9989.5
 PM[B13,B3,0]: - c[B3,0] + c[B13,0] + 100 delta[B13,B3,0] <= 75
 PM[B13,B3,1]: - c[B3,1] + c[B13,1] + 9999 delta[B13,B3,1] <= 9984.5
 PM[B13,B4,0]: - c[B4,0] + c[B13,0] + 100 delta[B13,B4,0] <= 90
 PM[B13,B4,1]: - c[B4,1] + c[B13,1] + 10000 delta[B13,B4,1] <= 9988.5
 PM[B13,B5,0]: - c[B5,0] + c[B13,0] + 100 delta[B13,B5,0] <= 90
 PM[B13,B5,1]: - c[B5,1] + c[B13,1] + 10000 delta[B13,B5,1] <= 9992
 PM[B13,B6,0]: - c[B6,0] + c[B13,0] + 100 delta[B13,B6,0] <= 85.5
 PM[B13,B6,1]: - c[B6,1] + c[B13,1] + 10000 delta[B13,B6,1] <= 9991
 PM[B13,B7,0]: - c[B7,0] + c[B13,0] + 100 delta[B13,B7,0] <= 80.5
 PM[B13,B7,1]: - c[B7,1] + c[B13,1] + 10000 delta[B13,B7,1] <= 9991
 PM[B13,B8,0]: - c[B8,0] + c[B13,0] + 100 delta[B13,B8,0] <= 83.5
 PM[B13,B8,1]: - c[B8,1] + c[B13,1] + 9999 delta[B13,B8,1] <= 9984
 PM[B13,B9,0]: - c[B9,0] + c[B13,0] + 100 delta[B13,B9,0] <= 86.5
 PM[B13,B9,1]: - c[B9,1] + c[B13,1] + 10000 delta[B13,B9,1] <= 9990.5
 PM[B13,B10,0]: - c[B10,0] + c[B13,0] + 100 delta[B13,B10,0] <= 88
 PM[B13,B10,1]: - c[B10,1] + c[B13,1] + 10000 delta[B13,B10,1] <= 9990
 PM[B13,B11,0]: - c[B11,0] + c[B13,0] + 100 delta[B13,B11,0] <= 84.5
 PM[B13,B11,1]: - c[B11,1] + c[B13,1] + 9999 delta[B13,B11,1] <= 9984
 PM[B13,B12,0]: - c[B12,0] + c[B13,0] + 100 delta[B13,B12,0] <= 83.5
 PM[B13,B12,1]: - c[B12,1] + c[B13,1] + 9999 delta[B13,B12,1] <= 9988
 PM[B13,B14,0]: c[B13,0] - c[B14,0] + 100 delta[B13,B14,0] <= 84
 PM[B13,B14,1]: c[B13,1] - c[B14,1] + 9999 delta[B13,B14,1] <= 9987.5
 PM[B13,B15,0]: c[B13,0] - c[B15,0] + 100 delta[B13,B15,0] <= 85
 PM[B13,B15,1]: c[B13,1] - c[B15,1] + 9999 delta[B13,B15,1] <= 9979
 PM[B13,B16,0]: c[B13,0] - c[B16,0] + 100 delta[B13,B16,0] <= 86.5
 PM[B13,B16,1]: c[B13,1] - c[B16,1] + 9999 delta[B13,B16,1] <= 9986
 PM[B13,B17,0]: c[B13,0] - c[B17,0] + 100 delta[B13,B17,0] <= 77
 PM[B13,B17,1]: c[B13,1] - c[B17,1] + 9999 delta[B13,B17,1] <= 9969.5
 PM[B13,B18,0]: c[B13,0] - c[B18,0] + 100 delta[B13,B18,0] <= 79
 PM[B13,B18,1]: c[B13,1] - c[B18,1] + 10000 delta[B13,B18,1] <= 9991.5
 PM[B13,B19,0]: c[B13,0] - c[B19,0] + 100 delta[B13,B19,0] <= 86.5
 PM[B13,B19,1]: c[B13,1] - c[B19,1] + 10000 delta[B13,B19,1] <= 9990
 PM[B13,B20,0]: c[B13,0] - c[B20,0] + 100 delta[B13,B20,0] <= 85
 PM[B13,B20,1]: c[B13,1] - c[B20,1] + 9999 delta[B13,B20,1] <= 9980
 PM[B13,B21,0]: c[B13,0] - c[B21,0] + 100 delta[B13,B21,0] <= 82
 PM[B13,B21,1]: c[B13,1] - c[B21,1] + 9999 delta[B13,B21,1] <= 9985
 PM[B13,B22,0]: c[B13,0] - c[B22,0] + 100 delta[B13,B22,0] <= 88.5
 PM[B13,B22,1]: c[B13,1] - c[B22,1] + 9999 delta[B13,B22,1] <= 9975
 PM[B13,B23,0]: c[B13,0] - c[B23,0] + 100 delta[B13,B23,0] <= 89
 PM[B13,B23,1]: c[B13,1] - c[B23,1] + 10000 delta[B13,B23,1] <= 9987
 PM[B13,B24,0]: c[B13,0] - c[B24,0] + 100 delta[B13,B24,0] <= 79
 PM[B13,B24,1]: c[B13,1] - c[B24,1] + 9999 delta[B13,B24,1] <= 9972.5
 PM[B13,B25,0]: c[B13,0] - c[B25,0] + 100 delta[B13,B25,0] <= 85
 PM[B13,B25,1]: c[B13,1] - c[B25,1] + 10000 delta[B13,B25,1] <= 9990.5
 PM[B13,B26,0]: c[B13,0] - c[B26,0] + 100 delta[B13,B26,0] <= 89.5
 PM[B13,B26,1]: c[B13,1] - c[B26,1] + 10000 delta[B13,B26,1] <= 9991.5
 PM[B13,B27,0]: c[B13,0] - c[B27,0] + 100 delta[B13,B27,0] <= 88
 PM[B13,B27,1]: c[B13,1] - c[B27,1] + 9999 delta[B13,B27,1] <= 9983.5
 PM[B13,B28,0]: c[B13,0] - c[B28,0] + 100 delta[B13,B28,0] <= 84.5
 PM[B13,B28,1]: c[B13,1] - c[B28,1] + 10000 delta[B13,B28,1] <= 9991.5
 PM[B13,B29,0]: c[B13,0] - c[B29,0] + 100 delta[B13,B29,0] <= 74
 PM[B13,B29,1]: c[B13,1] - c[B29,1] + 9999 delta[B13,B29,1] <= 9980.5
 PM[B13,B30,0]: c[B13,0] - c[B30,0] + 100 delta[B13,B30,0] <= 87
 PM[B13,B30,1]: c[B13,1] - c[B30,1] + 10000 delta[B13,B30,1] <= 9985
 PM[B13,B31,0]: c[B13,0] - c[B31,0] + 100 delta[B13,B31,0] <= 84
 PM[B13,B31,1]: c[B13,1] - c[B31,1] + 10000 delta[B13,B31,1] <= 9986.5
 PM[B13,B32,0]: c[B13,0] - c[B32,0] + 100 delta[B13,B32,0] <= 77
 PM[B13,B32,1]: c[B13,1] - c[B32,1] + 9999 delta[B13,B32,1] <= 9986.5
 PM[B13,B33,0]: c[B13,0] - c[B33,0] + 100 delta[B13,B33,0] <= 76.5
 PM[B13,B33,1]: c[B13,1] - c[B33,1] + 10000 delta[B13,B33,1] <= 9992
 PM[B13,B34,0]: c[B13,0] - c[B34,0] + 100 delta[B13,B34,0] <= 90.5
 PM[B13,B34,1]: c[B13,1] - c[B34,1] + 10000 delta[B13,B34,1] <= 9988.5
 PM[B13,B35,0]: c[B13,0] - c[B35,0] + 100 delta[B13,B35,0] <= 78
 PM[B13,B35,1]: c[B13,1] - c[B35,1] + 9999 delta[B13,B35,1] <= 9981.5
 PM[B13,B36,0]: c[B13,0] - c[B36,0] + 100 delta[B13,B36,0] <= 88
 PM[B13,B36,1]: c[B13,1] - c[B36,1] + 10000 delta[B13,B36,1] <= 9989.5
 PM[B13,B37,0]: c[B13,0] - c[B37,0] + 100 delta[B13,B37,0] <= 85
 PM[B13,B37,1]: c[B13,1] - c[B37,1] + 10000 delta[B13,B37,1] <= 9991.5
 PM[B13,B38,0]: c[B13,0] - c[B38,0] + 100 delta[B13,B38,0] <= 76.5
 PM[B13,B38,1]: c[B13,1] - c[B38,1] + 10000 delta[B13,B38,1] <= 9988.5
 PM[B13,B39,0]: c[B13,0] - c[B39,0] + 100 delta[B13,B39,0] <= 74
 PM[B13,B39,1]: c[B13,1] - c[B39,1] + 10000 delta[B13,B39,1] <= 9984.5
 PM[B13,B40,0]: c[B13,0] - c[B40,0] + 100 delta[B13,B40,0] <= 79
 PM[B13,B40,1]: c[B13,1] - c[B40,1] + 10000 delta[B13,B40,1] <= 9992
 PM[B13,B41,0]: c[B13,0] - c[B41,0] + 100 delta[B13,B41,0] <= 88.5
 PM[B13,B41,1]: c[B13,1] - c[B41,1] + 10000 delta[B13,B41,1] <= 9990
 PM[B13,B42,0]: c[B13,0] - c[B42,0] + 100 delta[B13,B42,0] <= 85.5
 PM[B13,B42,1]: c[B13,1] - c[B42,1] + 9999 delta[B13,B42,1] <= 9975.5
 PM[B13,B43,0]: c[B13,0] - c[B43,0] + 100 delta[B13,B43,0] <= 80
 PM[B13,B43,1]: c[B13,1] - c[B43,1] + 9999 delta[B13,B43,1] <= 9984.5
 PM[B13,B44,0]: c[B13,0] - c[B44,0] + 100 delta[B13,B44,0] <= 85
 PM[B13,B44,1]: c[B13,1] - c[B44,1] + 9999 delta[B13,B44,1] <= 9985
 PM[B13,B45,0]: c[B13,0] - c[B45,0] + 100 delta[B13,B45,0] <= 88
 PM[B13,B45,1]: c[B13,1] - c[B45,1] + 9999 delta[B13,B45,1] <= 9978
 PM[B13,B46,0]: c[B13,0] - c[B46,0] + 100 delta[B13,B46,0] <= 80.5
 PM[B13,B46,1]: c[B13,1] - c[B46,1] + 10000 delta[B13,B46,1] <= 9991.5
 PM[B13,B47,0]: c[B13,0] - c[B47,0] + 100 delta[B13,B47,0] <= 87
 PM[B13,B47,1]: c[B13,1] - c[B47,1] + 10000 delta[B13,B47,1] <= 9989.5
 PM[B13,B48,0]: c[B13,0] - c[B48,0] + 100 delta[B13,B48,0] <= 85.5
 PM[B13,B48,1]: c[B13,1] - c[B48,1] + 10000 delta[B13,B48,1] <= 9990.5
 PM[B13,B49,0]: c[B13,0] - c[B49,0] + 100 delta[B13,B49,0] <= 87
 PM[B13,B49,1]: c[B13,1] - c[B49,1] + 9999 delta[B13,B49,1] <= 9987.5
 PM[B14,B0,0]: - c[B0,0] + c[B14,0] + 100 delta[B14,B0,0] <= 88.5
 PM[B14,B0,1]: - c[B0,1] + c[B14,1] + 9998 delta[B14,B0,1] <= 9982
 PM[B14,B1,0]: - c[B1,0] + c[B14,0] + 100 delta[B14,B1,0] <= 71
 PM[B14,B1,1]: - c[B1,1] + c[B14,1] + 10000 delta[B14,B1,1] <= 9987
 PM[B14,B2,0]: - c[B2,0] + c[B14,0] + 100 delta[B14,B2,0] <= 90
 PM[B14,B2,1]: - c[B2,1] + c[B14,1] + 10000 delta[B14,B2,1] <= 9988
 PM[B14,B3,0]: - c[B3,0] + c[B14,0] + 100 delta[B14,B3,0] <= 75
 PM[B14,B3,1]: - c[B3,1] + c[B14,1] + 9998 delta[B14,B3,1] <= 9983
 PM[B14,B4,0]: - c[B4,0] + c[B14,0] + 100 delta[B14,B4,0] <= 90
 PM[B14,B4,1]: - c[B4,1] + c[B14,1] + 10000 delta[B14,B4,1] <= 9987
 PM[B14,B5,0]: - c[B5,0] + c[B14,0] + 100 delta[B14,B5,0] <= 90
 PM[B14,B5,1]: - c[B5,1] + c[B14,1] + 10000 delta[B14,B5,1] <= 9990.5
 PM[B14,B6,0]: - c[B6,0] + c[B14,0] + 100 delta[B14,B6,0] <= 85.5
 PM[B14,B6,1]: - c[B6,1] + c[B14,1] + 10000 delta[B14,B6,1] <= 9989.5
 PM[B14,B7,0]: - c[B7,0] + c[B14,0] + 100 delta[B14,B7,0] <= 80.5
 PM[B14,B7,1]: - c[B7,1] + c[B14,1] + 10000 delta[B14,B7,1] <= 9989.5
 PM[B14,B8,0]: - c[B8,0] + c[B14,0] + 100 delta[B14,B8,0] <= 83.5
 PM[B14,B8,1]: - c[B8,1] + c[B14,1] + 9998 delta[B14,B8,1] <= 9982.5
 PM[B14,B9,0]: - c[B9,0] + c[B14,0] + 100 delta[B14,B9,0] <= 86.5
 PM[B14,B9,1]: - c[B9,1] + c[B14,1] + 10000 delta[B14,B9,1] <= 9989
 PM[B14,B10,0]: - c[B10,0] + c[B14,0] + 100 delta[B14,B10,0] <= 88
 PM[B14,B10,1]: - c[B10,1] + c[B14,1] + 10000 delta[B14,B10,1] <= 9988.5
 PM[B14,B11,0]: - c[B11,0] + c[B14,0] + 100 delta[B14,B11,0] <= 84.5
 PM[B14,B11,1]: - c[B11,1] + c[B14,1] + 9998 delta[B14,B11,1] <= 9982.5
 PM[B14,B12,0]: - c[B12,0] + c[B14,0] + 100 delta[B14,B12,0] <= 83.5
 PM[B14,B12,1]: - c[B12,1] + c[B14,1] + 9999 delta[B14,B12,1] <= 9986.5
 PM[B14,B13,0]: - c[B13,0] + c[B14,0] + 100 delta[B14,B13,0] <= 83
 PM[B14,B13,1]: - c[B13,1] + c[B14,1] + 10000 delta[B14,B13,1] <= 9989.5
 PM[B14,B15,0]: c[B14,0] - c[B15,0] + 100 delta[B14,B15,0] <= 85
 PM[B14,B15,1]: c[B14,1] - c[B15,1] + 9998 delta[B14,B15,1] <= 9977.5
 PM[B14,B16,0]: c[B14,0] - c[B16,0] + 100 delta[B14,B16,0] <= 86.5
 PM[B14,B16,1]: c[B14,1] - c[B16,1] + 9998 delta[B14,B16,1] <= 9984.5
 PM[B14,B17,0]: c[B14,0] - c[B17,0] + 100 delta[B14,B17,0] <= 77
 PM[B14,B17,1]: c[B14,1] - c[B17,1] + 9998 delta[B14,B17,1] <= 9968
 PM[B14,B18,0]: c[B14,0] - c[B18,0] + 100 delta[B14,B18,0] <= 79
 PM[B14,B18,1]: c[B14,1] - c[B18,1] + 10000 delta[B14,B18,1] <= 9990
 PM[B14,B19,0]: c[B14,0] - c[B19,0] + 100 delta[B14,B19,0] <= 86.5
 PM[B14,B19,1]: c[B14,1] - c[B19,1] + 10000 delta[B14,B19,1] <= 9988.5
 PM[B14,B20,0]: c[B14,0] - c[B20,0] + 100 delta[B14,B20,0] <= 85
 PM[B14,B20,1]: c[B14,1] - c[B20,1] + 9998 delta[B14,B20,1] <= 9978.5
 PM[B14,B21,0]: c[B14,0] - c[B21,0] + 100 delta[B14,B21,0] <= 82
 PM[B14,B21,1]: c[B14,1] - c[B21,1] + 9998 delta[B14,B21,1] <= 9983.5
 PM[B14,B22,0]: c[B14,0] - c[B22,0] + 100 delta[B14,B22,0] <= 88.5
 PM[B14,B22,1]: c[B14,1] - c[B22,1] + 9998 delta[B14,B22,1] <= 9973.5
 PM[B14,B23,0]: c[B14,0] - c[B23,0] + 100 delta[B14,B23,0] <= 89
 PM[B14,B23,1]: c[B14,1] - c[B23,1] + 10000 delta[B14,B23,1] <= 9985.5
 PM[B14,B24,0]: c[B14,0] - c[B24,0] + 100 delta[B14,B24,0] <= 79
 PM[B14,B24,1]: c[B14,1] - c[B24,1] + 9998 delta[B14,B24,1] <= 9971
 PM[B14,B25,0]: c[B14,0] - c[B25,0] + 100 delta[B14,B25,0] <= 85
 PM[B14,B25,1]: c[B14,1] - c[B25,1] + 10000 delta[B14,B25,1] <= 9989
 PM[B14,B26,0]: c[B14,0] - c[B26,0] + 100 delta[B14,B26,0] <= 89.5
 PM[B14,B26,1]: c[B14,1] - c[B26,1] + 10000 delta[B14,B26,1] <= 9990
 PM[B14,B27,0]: c[B14,0] - c[B27,0] + 100 delta[B14,B27,0] <= 88
 PM[B14,B27,1]: c[B14,1] - c[B27,1] + 9998 delta[B14,B27,1] <= 9982
 PM[B14,B28,0]: c[B14,0] - c[B28,0] + 100 delta[B14,B28,0] <= 84.5
 PM[B14,B28,1]: c[B14,1] - c[B28,1] + 10000 delta[B14,B28,1] <= 9990
 PM[B14,B29,0]: c[B14,0] - c[B29,0] + 100 delta[B14,B29,0] <= 74
 PM[B14,B29,1]: c[B14,1] - c[B29,1] + 9998 delta[B14,B29,1] <= 9979
 PM[B14,B30,0]: c[B14,0] - c[B30,0] + 100 delta[B14,B30,0] <= 87
 PM[B14,B30,1]: c[B14,1] - c[B30,1] + 10000 delta[B14,B30,1] <= 9983.5
 PM[B14,B31,0]: c[B14,0] - c[B31,0] + 100 delta[B14,B31,0] <= 84
 PM[B14,B31,1]: c[B14,1] - c[B31,1] + 10000 delta[B14,B31,1] <= 9985
 PM[B14,B32,0]: c[B14,0] - c[B32,0] + 100 delta[B14,B32,0] <= 77
 PM[B14,B32,1]: c[B14,1] - c[B32,1] + 9998 delta[B14,B32,1] <= 9985
 PM[B14,B33,0]: c[B14,0] - c[B33,0] + 100 delta[B14,B33,0] <= 76.5
 PM[B14,B33,1]: c[B14,1] - c[B33,1] + 10000 delta[B14,B33,1] <= 9990.5
 PM[B14,B34,0]: c[B14,0] - c[B34,0] + 100 delta[B14,B34,0] <= 90.5
 PM[B14,B34,1]: c[B14,1] - c[B34,1] + 10000 delta[B14,B34,1] <= 9987
 PM[B14,B35,0]: c[B14,0] - c[B35,0] + 100 delta[B14,B35,0] <= 78
 PM[B14,B35,1]: c[B14,1] - c[B35,1] + 9998 delta[B14,B35,1] <= 9980
 PM[B14,B36,0]: c[B14,0] - c[B36,0] + 100 delta[B14,B36,0] <= 88
 PM[B14,B36,1]: c[B14,1] - c[B36,1] + 10000 delta[B14,B36,1] <= 9988
 PM[B14,B37,0]: c[B14,0] - c[B37,0] + 100 delta[B14,B37,0] <= 85
 PM[B14,B37,1]: c[B14,1] - c[B37,1] + 10000 delta[B14,B37,1] <= 9990
 PM[B14,B38,0]: c[B14,0] - c[B38,0] + 100 delta[B14,B38,0] <= 76.5
 PM[B14,B38,1]: c[B14,1] - c[B38,1] + 10000 delta[B14,B38,1] <= 9987
 PM[B14,B39,0]: c[B14,0] - c[B39,0] + 100 delta[B14,B39,0] <= 74
 PM[B14,B39,1]: c[B14,1] - c[B39,1] + 10000 delta[B14,B39,1] <= 9983
 PM[B14,B40,0]: c[B14,0] - c[B40,0] + 100 delta[B14,B40,0] <= 79
 PM[B14,B40,1]: c[B14,1] - c[B40,1] + 10000 delta[B14,B40,1] <= 9990.5
 PM[B14,B41,0]: c[B14,0] - c[B41,0] + 100 delta[B14,B41,0] <= 88.5
 PM[B14,B41,1]: c[B14,1] - c[B41,1] + 10000 delta[B14,B41,1] <= 9988.5
 PM[B14,B42,0]: c[B14,0] - c[B42,0] + 100 delta[B14,B42,0] <= 85.5
 PM[B14,B42,1]: c[B14,1] - c[B42,1] + 9998 delta[B14,B42,1] <= 9974
 PM[B14,B43,0]: c[B14,0] - c[B43,0] + 100 delta[B14,B43,0] <= 80
 PM[B14,B43,1]: c[B14,1] - c[B43,1] + 9998 delta[B14,B43,1] <= 9983
 PM[B14,B44,0]: c[B14,0] - c[B44,0] + 100 delta[B14,B44,0] <= 85
 PM[B14,B44,1]: c[B14,1] - c[B44,1] + 9998 delta[B14,B44,1] <= 9983.5
 PM[B14,B45,0]: c[B14,0] - c[B45,0] + 100 delta[B14,B45,0] <= 88
 PM[B14,B45,1]: c[B14,1] - c[B45,1] + 9998 delta[B14,B45,1] <= 9976.5
 PM[B14,B46,0]: c[B14,0] - c[B46,0] + 100 delta[B14,B46,0] <= 80.5
 PM[B14,B46,1]: c[B14,1] - c[B46,1] + 10000 delta[B14,B46,1] <= 9990
 PM[B14,B47,0]: c[B14,0] - c[B47,0] + 100 delta[B14,B47,0] <= 87
 PM[B14,B47,1]: c[B14,1] - c[B47,1] + 10000 delta[B14,B47,1] <= 9988
 PM[B14,B48,0]: c[B14,0] - c[B48,0] + 100 delta[B14,B48,0] <= 85.5
 PM[B14,B48,1]: c[B14,1] - c[B48,1] + 10000 delta[B14,B48,1] <= 9989
 PM[B14,B49,0]: c[B14,0] - c[B49,0] + 100 delta[B14,B49,0] <= 87
 PM[B14,B49,1]: c[B14,1] - c[B49,1] + 9998 delta[B14,B49,1] <= 9986
 PM[B15,B0,0]: - c[B0,0] + c[B15,0] + 100 delta[B15,B0,0] <= 87.5
 PM[B15,B0,1]: - c[B0,1] + c[B15,1] + 9996 delta[B15,B0,1] <= 9978.5
 PM[B15,B1,0]: - c[B1,0] + c[B15,0] + 100 delta[B15,B1,0] <= 70
 PM[B15,B1,1]: - c[B1,1] + c[B15,1] + 10000 delta[B15,B1,1] <= 9983.5
 PM[B15,B2,0]: - c[B2,0] + c[B15,0] + 100 delta[B15,B2,0] <= 89
 PM[B15,B2,1]: - c[B2,1] + c[B15,1] + 10000 delta[B15,B2,1] <= 9984.5
 PM[B15,B3,0]: - c[B3,0] + c[B15,0] + 100 delta[B15,B3,0] <= 74
 PM[B15,B3,1]: - c[B3,1] + c[B15,1] + 9996 delta[B15,B3,1] <= 9979.5
 PM[B15,B4,0]: - c[B4,0] + c[B15,0] + 100 delta[B15,B4,0] <= 89
 PM[B15,B4,1]: - c[B4,1] + c[B15,1] + 10000 delta[B15,B4,1] <= 9983.5
 PM[B15,B5,0]: - c[B5,0] + c[B15,0] + 100 delta[B15,B5,0] <= 89
 PM[B15,B5,1]: - c[B5,1] + c[B15,1] + 10000 delta[B15,B5,1] <= 9987
 PM[B15,B6,0]: - c[B6,0] + c[B15,0] + 100 delta[B15,B6,0] <= 84.5
 PM[B15,B6,1]: - c[B6,1] + c[B15,1] + 10000 delta[B15,B6,1] <= 9986
 PM[B15,B7,0]: - c[B7,0] + c[B15,0] + 100 delta[B15,B7,0] <= 79.5
 PM[B15,B7,1]: - c[B7,1] + c[B15,1] + 10000 delta[B15,B7,1] <= 9986
 PM[B15,B8,0]: - c[B8,0] + c[B15,0] + 100 delta[B15,B8,0] <= 82.5
 PM[B15,B8,1]: - c[B8,1] + c[B15,1] + 9997 delta[B15,B8,1] <= 9979
 PM[B15,B9,0]: - c[B9,0] + c[B15,0] + 100 delta[B15,B9,0] <= 85.5
 PM[B15,B9,1]: - c[B9,1] + c[B15,1] + 10000 delta[B15,B9,1] <= 9985.5
 PM[B15,B10,0]: - c[B10,0] + c[B15,0] + 100 delta[B15,B10,0] <= 87
 PM[B15,B10,1]: - c[B10,1] + c[B15,1] + 10000 delta[B15,B10,1] <= 9985
 PM[B15,B11,0]: - c[B11,0] + c[B15,0] + 100 delta[B15,B11,0] <= 83.5
 PM[B15,B11,1]: - c[B11,1] + c[B15,1] + 9996 delta[B15,B11,1] <= 9979
 PM[B15,B12,0]: - c[B12,0] + c[B15,0] + 100 delta[B15,B12,0] <= 82.5
 PM[B15,B12,1]: - c[B12,1] + c[B15,1] + 9999 delta[B15,B12,1] <= 9983
 PM[B15,B13,0]: - c[B13,0] + c[B15,0] + 100 delta[B15,B13,0] <= 82
 PM[B15,B13,1]: - c[B13,1] + c[B15,1] + 10000 delta[B15,B13,1] <= 9986
 PM[B15,B14,0]: - c[B14,0] + c[B15,0] + 100 delta[B15,B14,0] <= 83
 PM[B15,B14,1]: - c[B14,1] + c[B15,1] + 9997 delta[B15,B14,1] <= 9982.5
 PM[B15,B16,0]: c[B15,0] - c[B16,0] + 100 delta[B15,B16,0] <= 85.5
 PM[B15,B16,1]: c[B15,1] - c[B16,1] + 9996 delta[B15,B16,1] <= 9981
 PM[B15,B17,0]: c[B15,0] - c[B17,0] + 100 delta[B15,B17,0] <= 76
 PM[B15,B17,1]: c[B15,1] - c[B17,1] + 9996 delta[B15,B17,1] <= 9964.5
 PM[B15,B18,0]: c[B15,0] - c[B18,0] + 100 delta[B15,B18,0] <= 78
 PM[B15,B18,1]: c[B15,1] - c[B18,1] + 10000 delta[B15,B18,1] <= 9986.5
 PM[B15,B19,0]: c[B15,0] - c[B19,0] + 100 delta[B15,B19,0] <= 85.5
 PM[B15,B19,1]: c[B15,1] - c[B19,1] + 10000 delta[B15,B19,1] <= 9985
 PM[B15,B20,0]: c[B15,0] - c[B20,0] + 100 delta[B15,B20,0] <= 84
 PM[B15,B20,1]: c[B15,1] - c[B20,1] + 9996 delta[B15,B20,1] <= 9975
 PM[B15,B21,0]: c[B15,0] - c[B21,0] + 100 delta[B15,B21,0] <= 81
 PM[B15,B21,1]: c[B15,1] - c[B21,1] + 9996 delta[B15,B21,1] <= 9980
 PM[B15,B22,0]: c[B15,0] - c[B22,0] + 100 delta[B15,B22,0] <= 87.5
 PM[B15,B22,1]: c[B15,1] - c[B22,1] + 9996 delta[B15,B22,1] <= 9970
 PM[B15,B23,0]: c[B15,0] - c[B23,0] + 100 delta[B15,B23,0] <= 88
 PM[B15,B23,1]: c[B15,1] - c[B23,1] + 10000 delta[B15,B23,1] <= 9982
 PM[B15,B24,0]: c[B15,0] - c[B24,0] + 100 delta[B15,B24,0] <= 78
 PM[B15,B24,1]: c[B15,1] - c[B24,1] + 9996 delta[B15,B24,1] <= 9967.5
 PM[B15,B25,0]: c[B15,0] - c[B25,0] + 100 delta[B15,B25,0] <= 84
 PM[B15,B25,1]: c[B15,1] - c[B25,1] + 10000 delta[B15,B25,1] <= 9985.5
 PM[B15,B26,0]: c[B15,0] - c[B26,0] + 100 delta[B15,B26,0] <= 88.5
 PM[B15,B26,1]: c[B15,1] - c[B26,1] + 10000 delta[B15,B26,1] <= 9986.5
 PM[B15,B27,0]: c[B15,0] - c[B27,0] + 100 delta[B15,B27,0] <= 87
 PM[B15,B27,1]: c[B15,1] - c[B27,1] + 9998 delta[B15,B27,1] <= 9978.5
 PM[B15,B28,0]: c[B15,0] - c[B28,0] + 100 delta[B15,B28,0] <= 83.5
 PM[B15,B28,1]: c[B15,1] - c[B28,1] + 10000 delta[B15,B28,1] <= 9986.5
 PM[B15,B29,0]: c[B15,0] - c[B29,0] + 100 delta[B15,B29,0] <= 73
 PM[B15,B29,1]: c[B15,1] - c[B29,1] + 9996 delta[B15,B29,1] <= 9975.5
 PM[B15,B30,0]: c[B15,0] - c[B30,0] + 100 delta[B15,B30,0] <= 86
 PM[B15,B30,1]: c[B15,1] - c[B30,1] + 10000 delta[B15,B30,1] <= 9980
 PM[B15,B31,0]: c[B15,0] - c[B31,0] + 100 delta[B15,B31,0] <= 83
 PM[B15,B31,1]: c[B15,1] - c[B31,1] + 10000 delta[B15,B31,1] <= 9981.5
 PM[B15,B32,0]: c[B15,0] - c[B32,0] + 100 delta[B15,B32,0] <= 76
 PM[B15,B32,1]: c[B15,1] - c[B32,1] + 9996 delta[B15,B32,1] <= 9981.5
 PM[B15,B33,0]: c[B15,0] - c[B33,0] + 100 delta[B15,B33,0] <= 75.5
 PM[B15,B33,1]: c[B15,1] - c[B33,1] + 10000 delta[B15,B33,1] <= 9987
 PM[B15,B34,0]: c[B15,0] - c[B34,0] + 100 delta[B15,B34,0] <= 89.5
 PM[B15,B34,1]: c[B15,1] - c[B34,1] + 10000 delta[B15,B34,1] <= 9983.5
 PM[B15,B35,0]: c[B15,0] - c[B35,0] + 100 delta[B15,B35,0] <= 77
 PM[B15,B35,1]: c[B15,1] - c[B35,1] + 9996 delta[B15,B35,1] <= 9976.5
 PM[B15,B36,0]: c[B15,0] - c[B36,0] + 100 delta[B15,B36,0] <= 87
 PM[B15,B36,1]: c[B15,1] - c[B36,1] + 10000 delta[B15,B36,1] <= 9984.5
 PM[B15,B37,0]: c[B15,0] - c[B37,0] + 100 delta[B15,B37,0] <= 84
 PM[B15,B37,1]: c[B15,1] - c[B37,1] + 10000 delta[B15,B37,1] <= 9986.5
 PM[B15,B38,0]: c[B15,0] - c[B38,0] + 100 delta[B15,B38,0] <= 75.5
 PM[B15,B38,1]: c[B15,1] - c[B38,1] + 10000 delta[B15,B38,1] <= 9983.5
 PM[B15,B39,0]: c[B15,0] - c[B39,0] + 100 delta[B15,B39,0] <= 73
 PM[B15,B39,1]: c[B15,1] - c[B39,1] + 10000 delta[B15,B39,1] <= 9979.5
 PM[B15,B40,0]: c[B15,0] - c[B40,0] + 100 delta[B15,B40,0] <= 78
 PM[B15,B40,1]: c[B15,1] - c[B40,1] + 10000 delta[B15,B40,1] <= 9987
 PM[B15,B41,0]: c[B15,0] - c[B41,0] + 100 delta[B15,B41,0] <= 87.5
 PM[B15,B41,1]: c[B15,1] - c[B41,1] + 10000 delta[B15,B41,1] <= 9985
 PM[B15,B42,0]: c[B15,0] - c[B42,0] + 100 delta[B15,B42,0] <= 84.5
 PM[B15,B42,1]: c[B15,1] - c[B42,1] + 9996 delta[B15,B42,1] <= 9970.5
 PM[B15,B43,0]: c[B15,0] - c[B43,0] + 100 delta[B15,B43,0] <= 79
 PM[B15,B43,1]: c[B15,1] - c[B43,1] + 9996 delta[B15,B43,1] <= 9979.5
 PM[B15,B44,0]: c[B15,0] - c[B44,0] + 100 delta[B15,B44,0] <= 84
 PM[B15,B44,1]: c[B15,1] - c[B44,1] + 9996 delta[B15,B44,1] <= 9980
 PM[B15,B45,0]: c[B15,0] - c[B45,0] + 100 delta[B15,B45,0] <= 87
 PM[B15,B45,1]: c[B15,1] - c[B45,1] + 9996 delta[B15,B45,1] <= 9973
 PM[B15,B46,0]: c[B15,0] - c[B46,0] + 100 delta[B15,B46,0] <= 79.5
 PM[B15,B46,1]: c[B15,1] - c[B46,1] + 10000 delta[B15,B46,1] <= 9986.5
 PM[B15,B47,0]: c[B15,0] - c[B47,0] + 100 delta[B15,B47,0] <= 86
 PM[B15,B47,1]: c[B15,1] - c[B47,1] + 10000 delta[B15,B47,1] <= 9984.5
 PM[B15,B48,0]: c[B15,0] - c[B48,0] + 100 delta[B15,B48,0] <= 84.5
 PM[B15,B48,1]: c[B15,1] - c[B48,1] + 10000 delta[B15,B48,1] <= 9985.5
 PM[B15,B49,0]: c[B15,0] - c[B49,0] + 100 delta[B15,B49,0] <= 86
 PM[B15,B49,1]: c[B15,1] - c[B49,1] + 9996 delta[B15,B49,1] <= 9982.5
 PM[B16,B0,0]: - c[B0,0] + c[B16,0] + 100 delta[B16,B0,0] <= 89
 PM[B16,B0,1]: - c[B0,1] + c[B16,1] + 9994 delta[B16,B0,1] <= 9978.5
 PM[B16,B1,0]: - c[B1,0] + c[B16,0] + 100 delta[B16,B1,0] <= 71.5
 PM[B16,B1,1]: - c[B1,1] + c[B16,1] + 10000 delta[B16,B1,1] <= 9983.5
 PM[B16,B2,0]: - c[B2,0] + c[B16,0] + 100 delta[B16,B2,0] <= 90.5
 PM[B16,B2,1]: - c[B2,1] + c[B16,1] + 10000 delta[B16,B2,1] <= 9984.5
 PM[B16,B3,0]: - c[B3,0] + c[B16,0] + 100 delta[B16,B3,0] <= 75.5
 PM[B16,B3,1]: - c[B3,1] + c[B16,1] + 9996 delta[B16,B3,1] <= 9979.5
 PM[B16,B4,0]: - c[B4,0] + c[B16,0] + 100 delta[B16,B4,0] <= 90.5
 PM[B16,B4,1]: - c[B4,1] + c[B16,1] + 10000 delta[B16,B4,1] <= 9983.5
 PM[B16,B5,0]: - c[B5,0] + c[B16,0] + 100 delta[B16,B5,0] <= 90.5
 PM[B16,B5,1]: - c[B5,1] + c[B16,1] + 10000 delta[B16,B5,1] <= 9987
 PM[B16,B6,0]: - c[B6,0] + c[B16,0] + 100 delta[B16,B6,0] <= 86
 PM[B16,B6,1]: - c[B6,1] + c[B16,1] + 10000 delta[B16,B6,1] <= 9986
 PM[B16,B7,0]: - c[B7,0] + c[B16,0] + 100 delta[B16,B7,0] <= 81
 PM[B16,B7,1]: - c[B7,1] + c[B16,1] + 10000 delta[B16,B7,1] <= 9986
 PM[B16,B8,0]: - c[B8,0] + c[B16,0] + 100 delta[B16,B8,0] <= 84
 PM[B16,B8,1]: - c[B8,1] + c[B16,1] + 9997 delta[B16,B8,1] <= 9979
 PM[B16,B9,0]: - c[B9,0] + c[B16,0] + 100 delta[B16,B9,0] <= 87
 PM[B16,B9,1]: - c[B9,1] + c[B16,1] + 10000 delta[B16,B9,1] <= 9985.5
 PM[B16,B10,0]: - c[B10,0] + c[B16,0] + 100 delta[B16,B10,0] <= 88.5
 PM[B16,B10,1]: - c[B10,1] + c[B16,1] + 10000 delta[B16,B10,1] <= 9985
 PM[B16,B11,0]: - c[B11,0] + c[B16,0] + 100 delta[B16,B11,0] <= 85
 PM[B16,B11,1]: - c[B11,1] + c[B16,1] + 9994 delta[B16,B11,1] <= 9979
 PM[B16,B12,0]: - c[B12,0] + c[B16,0] + 100 delta[B16,B12,0] <= 84
 PM[B16,B12,1]: - c[B12,1] + c[B16,1] + 9999 delta[B16,B12,1] <= 9983
 PM[B16,B13,0]: - c[B13,0] + c[B16,0] + 100 delta[B16,B13,0] <= 83.5
 PM[B16,B13,1]: - c[B13,1] + c[B16,1] + 10000 delta[B16,B13,1] <= 9986
 PM[B16,B14,0]: - c[B14,0] + c[B16,0] + 100 delta[B16,B14,0] <= 84.5
 PM[B16,B14,1]: - c[B14,1] + c[B16,1] + 9997 delta[B16,B14,1] <= 9982.5
 PM[B16,B15,0]: - c[B15,0] + c[B16,0] + 100 delta[B16,B15,0] <= 85.5
 PM[B16,B15,1]: - c[B15,1] + c[B16,1] + 9994 delta[B16,B15,1] <= 9974
 PM[B16,B17,0]: c[B16,0] - c[B17,0] + 100 delta[B16,B17,0] <= 77.5
 PM[B16,B17,1]: c[B16,1] - c[B17,1] + 9994 delta[B16,B17,1] <= 9964.5
 PM[B16,B18,0]: c[B16,0] - c[B18,0] + 100 delta[B16,B18,0] <= 79.5
 PM[B16,B18,1]: c[B16,1] - c[B18,1] + 10000 delta[B16,B18,1] <= 9986.5
 PM[B16,B19,0]: c[B16,0] - c[B19,0] + 100 delta[B16,B19,0] <= 87
 PM[B16,B19,1]: c[B16,1] - c[B19,1] + 10000 delta[B16,B19,1] <= 9985
 PM[B16,B20,0]: c[B16,0] - c[B20,0] + 100 delta[B16,B20,0] <= 85.5
 PM[B16,B20,1]: c[B16,1] - c[B20,1] + 9994 delta[B16,B20,1] <= 9975
 PM[B16,B21,0]: c[B16,0] - c[B21,0] + 100 delta[B16,B21,0] <= 82.5
 PM[B16,B21,1]: c[B16,1] - c[B21,1] + 9994 delta[B16,B21,1] <= 9980
 PM[B16,B22,0]: c[B16,0] - c[B22,0] + 100 delta[B16,B22,0] <= 89
 PM[B16,B22,1]: c[B16,1] - c[B22,1] + 9994 delta[B16,B22,1] <= 9970
 PM[B16,B23,0]: c[B16,0] - c[B23,0] + 100 delta[B16,B23,0] <= 89.5
 PM[B16,B23,1]: c[B16,1] - c[B23,1] + 10000 delta[B16,B23,1] <= 9982
 PM[B16,B24,0]: c[B16,0] - c[B24,0] + 100 delta[B16,B24,0] <= 79.5
 PM[B16,B24,1]: c[B16,1] - c[B24,1] + 9994 delta[B16,B24,1] <= 9967.5
 PM[B16,B25,0]: c[B16,0] - c[B25,0] + 100 delta[B16,B25,0] <= 85.5
 PM[B16,B25,1]: c[B16,1] - c[B25,1] + 10000 delta[B16,B25,1] <= 9985.5
 PM[B16,B26,0]: c[B16,0] - c[B26,0] + 100 delta[B16,B26,0] <= 90
 PM[B16,B26,1]: c[B16,1] - c[B26,1] + 10000 delta[B16,B26,1] <= 9986.5
 PM[B16,B27,0]: c[B16,0] - c[B27,0] + 100 delta[B16,B27,0] <= 88.5
 PM[B16,B27,1]: c[B16,1] - c[B27,1] + 9998 delta[B16,B27,1] <= 9978.5
 PM[B16,B28,0]: c[B16,0] - c[B28,0] + 100 delta[B16,B28,0] <= 85
 PM[B16,B28,1]: c[B16,1] - c[B28,1] + 10000 delta[B16,B28,1] <= 9986.5
 PM[B16,B29,0]: c[B16,0] - c[B29,0] + 100 delta[B16,B29,0] <= 74.5
 PM[B16,B29,1]: c[B16,1] - c[B29,1] + 9994 delta[B16,B29,1] <= 9975.5
 PM[B16,B30,0]: c[B16,0] - c[B30,0] + 100 delta[B16,B30,0] <= 87.5
 PM[B16,B30,1]: c[B16,1] - c[B30,1] + 10000 delta[B16,B30,1] <= 9980
 PM[B16,B31,0]: c[B16,0] - c[B31,0] + 100 delta[B16,B31,0] <= 84.5
 PM[B16,B31,1]: c[B16,1] - c[B31,1] + 10000 delta[B16,B31,1] <= 9981.5
 PM[B16,B32,0]: c[B16,0] - c[B32,0] + 100 delta[B16,B32,0] <= 77.5
 PM[B16,B32,1]: c[B16,1] - c[B32,1] + 9996 delta[B16,B32,1] <= 9981.5
 PM[B16,B33,0]: c[B16,0] - c[B33,0] + 100 delta[B16,B33,0] <= 77
 PM[B16,B33,1]: c[B16,1] - c[B33,1] + 10000 delta[B16,B33,1] <= 9987
 PM[B16,B34,0]: c[B16,0] - c[B34,0] + 100 delta[B16,B34,0] <= 91
 PM[B16,B34,1]: c[B16,1] - c[B34,1] + 10000 delta[B16,B34,1] <= 9983.5
 PM[B16,B35,0]: c[B16,0] - c[B35,0] + 100 delta[B16,B35,0] <= 78.5
 PM[B16,B35,1]: c[B16,1] - c[B35,1] + 9994 delta[B16,B35,1] <= 9976.5
 PM[B16,B36,0]: c[B16,0] - c[B36,0] + 100 delta[B16,B36,0] <= 88.5
 PM[B16,B36,1]: c[B16,1] - c[B36,1] + 10000 delta[B16,B36,1] <= 9984.5
 PM[B16,B37,0]: c[B16,0] - c[B37,0] + 100 delta[B16,B37,0] <= 85.5
 PM[B16,B37,1]: c[B16,1] - c[B37,1] + 10000 delta[B16,B37,1] <= 9986.5
 PM[B16,B38,0]: c[B16,0] - c[B38,0] + 100 delta[B16,B38,0] <= 77
 PM[B16,B38,1]: c[B16,1] - c[B38,1] + 10000 delta[B16,B38,1] <= 9983.5
 PM[B16,B39,0]: c[B16,0] - c[B39,0] + 100 delta[B16,B39,0] <= 74.5
 PM[B16,B39,1]: c[B16,1] - c[B39,1] + 10000 delta[B16,B39,1] <= 9979.5
 PM[B16,B40,0]: c[B16,0] - c[B40,0] + 100 delta[B16,B40,0] <= 79.5
 PM[B16,B40,1]: c[B16,1] - c[B40,1] + 10000 delta[B16,B40,1] <= 9987
 PM[B16,B41,0]: c[B16,0] - c[B41,0] + 100 delta[B16,B41,0] <= 89
 PM[B16,B41,1]: c[B16,1] - c[B41,1] + 10000 delta[B16,B41,1] <= 9985
 PM[B16,B42,0]: c[B16,0] - c[B42,0] + 100 delta[B16,B42,0] <= 86
 PM[B16,B42,1]: c[B16,1] - c[B42,1] + 9994 delta[B16,B42,1] <= 9970.5
 PM[B16,B43,0]: c[B16,0] - c[B43,0] + 100 delta[B16,B43,0] <= 80.5
 PM[B16,B43,1]: c[B16,1] - c[B43,1] + 9994 delta[B16,B43,1] <= 9979.5
 PM[B16,B44,0]: c[B16,0] - c[B44,0] + 100 delta[B16,B44,0] <= 85.5
 PM[B16,B44,1]: c[B16,1] - c[B44,1] + 9995 delta[B16,B44,1] <= 9980
 PM[B16,B45,0]: c[B16,0] - c[B45,0] + 100 delta[B16,B45,0] <= 88.5
 PM[B16,B45,1]: c[B16,1] - c[B45,1] + 9994 delta[B16,B45,1] <= 9973
 PM[B16,B46,0]: c[B16,0] - c[B46,0] + 100 delta[B16,B46,0] <= 81
 PM[B16,B46,1]: c[B16,1] - c[B46,1] + 10000 delta[B16,B46,1] <= 9986.5
 PM[B16,B47,0]: c[B16,0] - c[B47,0] + 100 delta[B16,B47,0] <= 87.5
 PM[B16,B47,1]: c[B16,1] - c[B47,1] + 10000 delta[B16,B47,1] <= 9984.5
 PM[B16,B48,0]: c[B16,0] - c[B48,0] + 100 delta[B16,B48,0] <= 86
 PM[B16,B48,1]: c[B16,1] - c[B48,1] + 10000 delta[B16,B48,1] <= 9985.5
 PM[B16,B49,0]: c[B16,0] - c[B49,0] + 100 delta[B16,B49,0] <= 87.5
 PM[B16,B49,1]: c[B16,1] - c[B49,1] + 9996 delta[B16,B49,1] <= 9982.5
 PM[B17,B0,0]: - c[B0,0] + c[B17,0] + 100 delta[B17,B0,0] <= 82.5
 PM[B17,B0,1]: - c[B0,1] + c[B17,1] + 10000 delta[B17,B0,1] <= 9979
 PM[B17,B1,0]: - c[B1,0] + c[B17,0] + 94 delta[B17,B1,0] <= 65
 PM[B17,B1,1]: - c[B1,1] + c[B17,1] + 10000 delta[B17,B1,1] <= 9984
 PM[B17,B2,0]: - c[B2,0] + c[B17,0] + 100 delta[B17,B2,0] <= 84
 PM[B17,B2,1]: - c[B2,1] + c[B17,1] + 10000 delta[B17,B2,1] <= 9985
 PM[B17,B3,0]: - c[B3,0] + c[B17,0] + 94 delta[B17,B3,0] <= 69
 PM[B17,B3,1]: - c[B3,1] + c[B17,1] + 10000 delta[B17,B3,1] <= 9980
 PM[B17,B4,0]: - c[B4,0] + c[B17,0] + 100 delta[B17,B4,0] <= 84
 PM[B17,B4,1]: - c[B4,1] + c[B17,1] + 10000 delta[B17,B4,1] <= 9984
 PM[B17,B5,0]: - c[B5,0] + c[B17,0] + 100 delta[B17,B5,0] <= 84
 PM[B17,B5,1]: - c[B5,1] + c[B17,1] + 10000 delta[B17,B5,1] <= 9987.5
 PM[B17,B6,0]: - c[B6,0] + c[B17,0] + 100 delta[B17,B6,0] <= 79.5
 PM[B17,B6,1]: - c[B6,1] + c[B17,1] + 10000 delta[B17,B6,1] <= 9986.5
 PM[B17,B7,0]: - c[B7,0] + c[B17,0] + 95 delta[B17,B7,0] <= 74.5
 PM[B17,B7,1]: - c[B7,1] + c[B17,1] + 10000 delta[B17,B7,1] <= 9986.5
 PM[B17,B8,0]: - c[B8,0] + c[B17,0] + 94 delta[B17,B8,0] <= 77.5
 PM[B17,B8,1]: - c[B8,1] + c[B17,1] + 10000 delta[B17,B8,1] <= 9979.5
 PM[B17,B9,0]: - c[B9,0] + c[B17,0] + 99 delta[B17,B9,0] <= 80.5
 PM[B17,B9,1]: - c[B9,1] + c[B17,1] + 10000 delta[B17,B9,1] <= 9986
 PM[B17,B10,0]: - c[B10,0] + c[B17,0] + 100 delta[B17,B10,0] <= 82
 PM[B17,B10,1]: - c[B10,1] + c[B17,1] + 10000 delta[B17,B10,1] <= 9985.5
 PM[B17,B11,0]: - c[B11,0] + c[B17,0] + 96 delta[B17,B11,0] <= 78.5
 PM[B17,B11,1]: - c[B11,1] + c[B17,1] + 10000 delta[B17,B11,1] <= 9979.5
 PM[B17,B12,0]: - c[B12,0] + c[B17,0] + 100 delta[B17,B12,0] <= 77.5
 PM[B17,B12,1]: - c[B12,1] + c[B17,1] + 10000 delta[B17,B12,1] <= 9983.5
 PM[B17,B13,0]: - c[B13,0] + c[B17,0] + 97 delta[B17,B13,0] <= 77
 PM[B17,B13,1]: - c[B13,1] + c[B17,1] + 10000 delta[B17,B13,1] <= 9986.5
 PM[B17,B14,0]: - c[B14,0] + c[B17,0] + 98 delta[B17,B14,0] <= 78
 PM[B17,B14,1]: - c[B14,1] + c[B17,1] + 10000 delta[B17,B14,1] <= 9983
 PM[B17,B15,0]: - c[B15,0] + c[B17,0] + 100 delta[B17,B15,0] <= 79
 PM[B17,B15,1]: - c[B15,1] + c[B17,1] + 10000 delta[B17,B15,1] <= 9974.5
 PM[B17,B16,0]: - c[B16,0] + c[B17,0] + 100 delta[B17,B16,0] <= 80.5
 PM[B17,B16,1]: - c[B16,1] + c[B17,1] + 10000 delta[B17,B16,1] <= 9981.5
 PM[B17,B18,0]: c[B17,0] - c[B18,0] + 96 delta[B17,B18,0] <= 73
 PM[B17,B18,1]: c[B17,1] - c[B18,1] + 10000 delta[B17,B18,1] <= 9987
 PM[B17,B19,0]: c[B17,0] - c[B19,0] + 100 delta[B17,B19,0] <= 80.5
 PM[B17,B19,1]: c[B17,1] - c[B19,1] + 10000 delta[B17,B19,1] <= 9985.5
 PM[B17,B20,0]: c[B17,0] - c[B20,0] + 100 delta[B17,B20,0] <= 79
 PM[B17,B20,1]: c[B17,1] - c[B20,1] + 10000 delta[B17,B20,1] <= 9975.5
 PM[B17,B21,0]: c[B17,0] - c[B21,0] + 100 delta[B17,B21,0] <= 76
 PM[B17,B21,1]: c[B17,1] - c[B21,1] + 10000 delta[B17,B21,1] <= 9980.5
 PM[B17,B22,0]: c[B17,0] - c[B22,0] + 100 delta[B17,B22,0] <= 82.5
 PM[B17,B22,1]: c[B17,1] - c[B22,1] + 10000 delta[B17,B22,1] <= 9970.5
 PM[B17,B23,0]: c[B17,0] - c[B23,0] + 100 delta[B17,B23,0] <= 83
 PM[B17,B23,1]: c[B17,1] - c[B23,1] + 10000 delta[B17,B23,1] <= 9982.5
 PM[B17,B24,0]: c[B17,0] - c[B24,0] + 94 delta[B17,B24,0] <= 73
 PM[B17,B24,1]: c[B17,1] - c[B24,1] + 10000 delta[B17,B24,1] <= 9968
 PM[B17,B25,0]: c[B17,0] - c[B25,0] + 100 delta[B17,B25,0] <= 79
 PM[B17,B25,1]: c[B17,1] - c[B25,1] + 10000 delta[B17,B25,1] <= 9986
 PM[B17,B26,0]: c[B17,0] - c[B26,0] + 100 delta[B17,B26,0] <= 83.5
 PM[B17,B26,1]: c[B17,1] - c[B26,1] + 10000 delta[B17,B26,1] <= 9987
 PM[B17,B27,0]: c[B17,0] - c[B27,0] + 99 delta[B17,B27,0] <= 82
 PM[B17,B27,1]: c[B17,1] - c[B27,1] + 10000 delta[B17,B27,1] <= 9979
 PM[B17,B28,0]: c[B17,0] - c[B28,0] + 100 delta[B17,B28,0] <= 78.5
 PM[B17,B28,1]: c[B17,1] - c[B28,1] + 10000 delta[B17,B28,1] <= 9987
 PM[B17,B29,0]: c[B17,0] - c[B29,0] + 94 delta[B17,B29,0] <= 68
 PM[B17,B29,1]: c[B17,1] - c[B29,1] + 10000 delta[B17,B29,1] <= 9976
 PM[B17,B30,0]: c[B17,0] - c[B30,0] + 97 delta[B17,B30,0] <= 81
 PM[B17,B30,1]: c[B17,1] - c[B30,1] + 10000 delta[B17,B30,1] <= 9980.5
 PM[B17,B31,0]: c[B17,0] - c[B31,0] + 100 delta[B17,B31,0] <= 78
 PM[B17,B31,1]: c[B17,1] - c[B31,1] + 10000 delta[B17,B31,1] <= 9982
 PM[B17,B32,0]: c[B17,0] - c[B32,0] + 94 delta[B17,B32,0] <= 71
 PM[B17,B32,1]: c[B17,1] - c[B32,1] + 10000 delta[B17,B32,1] <= 9982
 PM[B17,B33,0]: c[B17,0] - c[B33,0] + 94 delta[B17,B33,0] <= 70.5
 PM[B17,B33,1]: c[B17,1] - c[B33,1] + 10000 delta[B17,B33,1] <= 9987.5
 PM[B17,B34,0]: c[B17,0] - c[B34,0] + 100 delta[B17,B34,0] <= 84.5
 PM[B17,B34,1]: c[B17,1] - c[B34,1] + 10000 delta[B17,B34,1] <= 9984
 PM[B17,B35,0]: c[B17,0] - c[B35,0] + 94 delta[B17,B35,0] <= 72
 PM[B17,B35,1]: c[B17,1] - c[B35,1] + 10000 delta[B17,B35,1] <= 9977
 PM[B17,B36,0]: c[B17,0] - c[B36,0] + 100 delta[B17,B36,0] <= 82
 PM[B17,B36,1]: c[B17,1] - c[B36,1] + 10000 delta[B17,B36,1] <= 9985
 PM[B17,B37,0]: c[B17,0] - c[B37,0] + 95 delta[B17,B37,0] <= 79
 PM[B17,B37,1]: c[B17,1] - c[B37,1] + 10000 delta[B17,B37,1] <= 9987
 PM[B17,B38,0]: c[B17,0] - c[B38,0] + 94 delta[B17,B38,0] <= 70.5
 PM[B17,B38,1]: c[B17,1] - c[B38,1] + 10000 delta[B17,B38,1] <= 9984
 PM[B17,B39,0]: c[B17,0] - c[B39,0] + 94 delta[B17,B39,0] <= 68
 PM[B17,B39,1]: c[B17,1] - c[B39,1] + 10000 delta[B17,B39,1] <= 9980
 PM[B17,B40,0]: c[B17,0] - c[B40,0] + 94 delta[B17,B40,0] <= 73
 PM[B17,B40,1]: c[B17,1] - c[B40,1] + 10000 delta[B17,B40,1] <= 9987.5
 PM[B17,B41,0]: c[B17,0] - c[B41,0] + 100 delta[B17,B41,0] <= 82.5
 PM[B17,B41,1]: c[B17,1] - c[B41,1] + 10000 delta[B17,B41,1] <= 9985.5
 PM[B17,B42,0]: c[B17,0] - c[B42,0] + 100 delta[B17,B42,0] <= 79.5
 PM[B17,B42,1]: c[B17,1] - c[B42,1] + 10000 delta[B17,B42,1] <= 9971
 PM[B17,B43,0]: c[B17,0] - c[B43,0] + 95 delta[B17,B43,0] <= 74
 PM[B17,B43,1]: c[B17,1] - c[B43,1] + 10000 delta[B17,B43,1] <= 9980
 PM[B17,B44,0]: c[B17,0] - c[B44,0] + 100 delta[B17,B44,0] <= 79
 PM[B17,B44,1]: c[B17,1] - c[B44,1] + 10000 delta[B17,B44,1] <= 9980.5
 PM[B17,B45,0]: c[B17,0] - c[B45,0] + 100 delta[B17,B45,0] <= 82
 PM[B17,B45,1]: c[B17,1] - c[B45,1] + 10000 delta[B17,B45,1] <= 9973.5
 PM[B17,B46,0]: c[B17,0] - c[B46,0] + 94 delta[B17,B46,0] <= 74.5
 PM[B17,B46,1]: c[B17,1] - c[B46,1] + 10000 delta[B17,B46,1] <= 9987
 PM[B17,B47,0]: c[B17,0] - c[B47,0] + 100 delta[B17,B47,0] <= 81
 PM[B17,B47,1]: c[B17,1] - c[B47,1] + 10000 delta[B17,B47,1] <= 9985
 PM[B17,B48,0]: c[B17,0] - c[B48,0] + 100 delta[B17,B48,0] <= 79.5
 PM[B17,B48,1]: c[B17,1] - c[B48,1] + 10000 delta[B17,B48,1] <= 9986
 PM[B17,B49,0]: c[B17,0] - c[B49,0] + 100 delta[B17,B49,0] <= 81
 PM[B17,B49,1]: c[B17,1] - c[B49,1] + 10000 delta[B17,B49,1] <= 9983
 PM[B18,B0,0]: - c[B0,0] + c[B18,0] + 100 delta[B18,B0,0] <= 85.5
 PM[B18,B0,1]: - c[B0,1] + c[B18,1] + 10000 delta[B18,B0,1] <= 9985
 PM[B18,B1,0]: - c[B1,0] + c[B18,0] + 100 delta[B18,B1,0] <= 68
 PM[B18,B1,1]: - c[B1,1] + c[B18,1] + 10000 delta[B18,B1,1] <= 9990
 PM[B18,B2,0]: - c[B2,0] + c[B18,0] + 100 delta[B18,B2,0] <= 87
 PM[B18,B2,1]: - c[B2,1] + c[B18,1] + 10000 delta[B18,B2,1] <= 9991
 PM[B18,B3,0]: - c[B3,0] + c[B18,0] + 100 delta[B18,B3,0] <= 72
 PM[B18,B3,1]: - c[B3,1] + c[B18,1] + 10000 delta[B18,B3,1] <= 9986
 PM[B18,B4,0]: - c[B4,0] + c[B18,0] + 100 delta[B18,B4,0] <= 87
 PM[B18,B4,1]: - c[B4,1] + c[B18,1] + 10000 delta[B18,B4,1] <= 9990
 PM[B18,B5,0]: - c[B5,0] + c[B18,0] + 100 delta[B18,B5,0] <= 87
 PM[B18,B5,1]: - c[B5,1] + c[B18,1] + 10000 delta[B18,B5,1] <= 9993.5
 PM[B18,B6,0]: - c[B6,0] + c[B18,0] + 100 delta[B18,B6,0] <= 82.5
 PM[B18,B6,1]: - c[B6,1] + c[B18,1] + 10000 delta[B18,B6,1] <= 9992.5
 PM[B18,B7,0]: - c[B7,0] + c[B18,0] + 100 delta[B18,B7,0] <= 77.5
 PM[B18,B7,1]: - c[B7,1] + c[B18,1] + 10000 delta[B18,B7,1] <= 9992.5
 PM[B18,B8,0]: - c[B8,0] + c[B18,0] + 100 delta[B18,B8,0] <= 80.5
 PM[B18,B8,1]: - c[B8,1] + c[B18,1] + 10000 delta[B18,B8,1] <= 9985.5
 PM[B18,B9,0]: - c[B9,0] + c[B18,0] + 100 delta[B18,B9,0] <= 83.5
 PM[B18,B9,1]: - c[B9,1] + c[B18,1] + 10000 delta[B18,B9,1] <= 9992
 PM[B18,B10,0]: - c[B10,0] + c[B18,0] + 100 delta[B18,B10,0] <= 85
 PM[B18,B10,1]: - c[B10,1] + c[B18,1] + 10000 delta[B18,B10,1] <= 9991.5
 PM[B18,B11,0]: - c[B11,0] + c[B18,0] + 100 delta[B18,B11,0] <= 81.5
 PM[B18,B11,1]: - c[B11,1] + c[B18,1] + 10000 delta[B18,B11,1] <= 9985.5
 PM[B18,B12,0]: - c[B12,0] + c[B18,0] + 100 delta[B18,B12,0] <= 80.5
 PM[B18,B12,1]: - c[B12,1] + c[B18,1] + 10000 delta[B18,B12,1] <= 9989.5
 PM[B18,B13,0]: - c[B13,0] + c[B18,0] + 100 delta[B18,B13,0] <= 80
 PM[B18,B13,1]: - c[B13,1] + c[B18,1] + 10000 delta[B18,B13,1] <= 9992.5
 PM[B18,B14,0]: - c[B14,0] + c[B18,0] + 100 delta[B18,B14,0] <= 81
 PM[B18,B14,1]: - c[B14,1] + c[B18,1] + 10000 delta[B18,B14,1] <= 9989
 PM[B18,B15,0]: - c[B15,0] + c[B18,0] + 100 delta[B18,B15,0] <= 82
 PM[B18,B15,1]: - c[B15,1] + c[B18,1] + 10000 delta[B18,B15,1] <= 9980.5
 PM[B18,B16,0]: - c[B16,0] + c[B18,0] + 100 delta[B18,B16,0] <= 83.5
 PM[B18,B16,1]: - c[B16,1] + c[B18,1] + 10000 delta[B18,B16,1] <= 9987.5
 PM[B18,B17,0]: - c[B17,0] + c[B18,0] + 100 delta[B18,B17,0] <= 74
 PM[B18,B17,1]: - c[B17,1] + c[B18,1] + 10000 delta[B18,B17,1] <= 9971
 PM[B18,B19,0]: c[B18,0] - c[B19,0] + 100 delta[B18,B19,0] <= 83.5
 PM[B18,B19,1]: c[B18,1] - c[B19,1] + 10000 delta[B18,B19,1] <= 9991.5
 PM[B18,B20,0]: c[B18,0] - c[B20,0] + 100 delta[B18,B20,0] <= 82
 PM[B18,B20,1]: c[B18,1] - c[B20,1] + 10000 delta[B18,B20,1] <= 9981.5
 PM[B18,B21,0]: c[B18,0] - c[B21,0] + 100 delta[B18,B21,0] <= 79
 PM[B18,B21,1]: c[B18,1] - c[B21,1] + 10000 delta[B18,B21,1] <= 9986.5
 PM[B18,B22,0]: c[B18,0] - c[B22,0] + 100 delta[B18,B22,0] <= 85.5
 PM[B18,B22,1]: c[B18,1] - c[B22,1] + 10000 delta[B18,B22,1] <= 9976.5
 PM[B18,B23,0]: c[B18,0] - c[B23,0] + 100 delta[B18,B23,0] <= 86
 PM[B18,B23,1]: c[B18,1] - c[B23,1] + 10000 delta[B18,B23,1] <= 9988.5
 PM[B18,B24,0]: c[B18,0] - c[B24,0] + 100 delta[B18,B24,0] <= 76
 PM[B18,B24,1]: c[B18,1] - c[B24,1] + 10000 delta[B18,B24,1] <= 9974
 PM[B18,B25,0]: c[B18,0] - c[B25,0] + 100 delta[B18,B25,0] <= 82
 PM[B18,B25,1]: c[B18,1] - c[B25,1] + 10000 delta[B18,B25,1] <= 9992
 PM[B18,B26,0]: c[B18,0] - c[B26,0] + 100 delta[B18,B26,0] <= 86.5
 PM[B18,B26,1]: c[B18,1] - c[B26,1] + 10000 delta[B18,B26,1] <= 9993
 PM[B18,B27,0]: c[B18,0] - c[B27,0] + 100 delta[B18,B27,0] <= 85
 PM[B18,B27,1]: c[B18,1] - c[B27,1] + 10000 delta[B18,B27,1] <= 9985
 PM[B18,B28,0]: c[B18,0] - c[B28,0] + 100 delta[B18,B28,0] <= 81.5
 PM[B18,B28,1]: c[B18,1] - c[B28,1] + 10000 delta[B18,B28,1] <= 9993
 PM[B18,B29,0]: c[B18,0] - c[B29,0] + 100 delta[B18,B29,0] <= 71
 PM[B18,B29,1]: c[B18,1] - c[B29,1] + 10000 delta[B18,B29,1] <= 9982
 PM[B18,B30,0]: c[B18,0] - c[B30,0] + 100 delta[B18,B30,0] <= 84
 PM[B18,B30,1]: c[B18,1] - c[B30,1] + 10000 delta[B18,B30,1] <= 9986.5
 PM[B18,B31,0]: c[B18,0] - c[B31,0] + 100 delta[B18,B31,0] <= 81
 PM[B18,B31,1]: c[B18,1] - c[B31,1] + 10000 delta[B18,B31,1] <= 9988
 PM[B18,B32,0]: c[B18,0] - c[B32,0] + 100 delta[B18,B32,0] <= 74
 PM[B18,B32,1]: c[B18,1] - c[B32,1] + 10000 delta[B18,B32,1] <= 9988
 PM[B18,B33,0]: c[B18,0] - c[B33,0] + 100 delta[B18,B33,0] <= 73.5
 PM[B18,B33,1]: c[B18,1] - c[B33,1] + 10000 delta[B18,B33,1] <= 9993.5
 PM[B18,B34,0]: c[B18,0] - c[B34,0] + 100 delta[B18,B34,0] <= 87.5
 PM[B18,B34,1]: c[B18,1] - c[B34,1] + 10000 delta[B18,B34,1] <= 9990
 PM[B18,B35,0]: c[B18,0] - c[B35,0] + 100 delta[B18,B35,0] <= 75
 PM[B18,B35,1]: c[B18,1] - c[B35,1] + 10000 delta[B18,B35,1] <= 9983
 PM[B18,B36,0]: c[B18,0] - c[B36,0] + 100 delta[B18,B36,0] <= 85
 PM[B18,B36,1]: c[B18,1] - c[B36,1] + 10000 delta[B18,B36,1] <= 9991
 PM[B18,B37,0]: c[B18,0] - c[B37,0] + 100 delta[B18,B37,0] <= 82
 PM[B18,B37,1]: c[B18,1] - c[B37,1] + 10000 delta[B18,B37,1] <= 9993
 PM[B18,B38,0]: c[B18,0] - c[B38,0] + 100 delta[B18,B38,0] <= 73.5
 PM[B18,B38,1]: c[B18,1] - c[B38,1] + 10000 delta[B18,B38,1] <= 9990
 PM[B18,B39,0]: c[B18,0] - c[B39,0] + 100 delta[B18,B39,0] <= 71
 PM[B18,B39,1]: c[B18,1] - c[B39,1] + 10000 delta[B18,B39,1] <= 9986
 PM[B18,B40,0]: c[B18,0] - c[B40,0] + 100 delta[B18,B40,0] <= 76
 PM[B18,B40,1]: c[B18,1] - c[B40,1] + 10000 delta[B18,B40,1] <= 9993.5
 PM[B18,B41,0]: c[B18,0] - c[B41,0] + 100 delta[B18,B41,0] <= 85.5
 PM[B18,B41,1]: c[B18,1] - c[B41,1] + 10000 delta[B18,B41,1] <= 9991.5
 PM[B18,B42,0]: c[B18,0] - c[B42,0] + 100 delta[B18,B42,0] <= 82.5
 PM[B18,B42,1]: c[B18,1] - c[B42,1] + 10000 delta[B18,B42,1] <= 9977
 PM[B18,B43,0]: c[B18,0] - c[B43,0] + 100 delta[B18,B43,0] <= 77
 PM[B18,B43,1]: c[B18,1] - c[B43,1] + 10000 delta[B18,B43,1] <= 9986
 PM[B18,B44,0]: c[B18,0] - c[B44,0] + 100 delta[B18,B44,0] <= 82
 PM[B18,B44,1]: c[B18,1] - c[B44,1] + 10000 delta[B18,B44,1] <= 9986.5
 PM[B18,B45,0]: c[B18,0] - c[B45,0] + 100 delta[B18,B45,0] <= 85
 PM[B18,B45,1]: c[B18,1] - c[B45,1] + 10000 delta[B18,B45,1] <= 9979.5
 PM[B18,B46,0]: c[B18,0] - c[B46,0] + 100 delta[B18,B46,0] <= 77.5
 PM[B18,B46,1]: c[B18,1] - c[B46,1] + 10000 delta[B18,B46,1] <= 9993
 PM[B18,B47,0]: c[B18,0] - c[B47,0] + 100 delta[B18,B47,0] <= 84
 PM[B18,B47,1]: c[B18,1] - c[B47,1] + 10000 delta[B18,B47,1] <= 9991
 PM[B18,B48,0]: c[B18,0] - c[B48,0] + 100 delta[B18,B48,0] <= 82.5
 PM[B18,B48,1]: c[B18,1] - c[B48,1] + 10000 delta[B18,B48,1] <= 9992
 PM[B18,B49,0]: c[B18,0] - c[B49,0] + 100 delta[B18,B49,0] <= 84
 PM[B18,B49,1]: c[B18,1] - c[B49,1] + 10000 delta[B18,B49,1] <= 9989
 PM[B19,B0,0]: - c[B0,0] + c[B19,0] + 100 delta[B19,B0,0] <= 77
 PM[B19,B0,1]: - c[B0,1] + c[B19,1] + 9994 delta[B19,B0,1] <= 9974.5
 PM[B19,B1,0]: - c[B1,0] + c[B19,0] + 88 delta[B19,B1,0] <= 59.5
 PM[B19,B1,1]: - c[B1,1] + c[B19,1] + 10000 delta[B19,B1,1] <= 9979.5
 PM[B19,B2,0]: - c[B2,0] + c[B19,0] + 100 delta[B19,B2,0] <= 78.5
 PM[B19,B2,1]: - c[B2,1] + c[B19,1] + 10000 delta[B19,B2,1] <= 9980.5
 PM[B19,B3,0]: - c[B3,0] + c[B19,0] + 90 delta[B19,B3,0] <= 63.5
 PM[B19,B3,1]: - c[B3,1] + c[B19,1] + 9996 delta[B19,B3,1] <= 9975.5
 PM[B19,B4,0]: - c[B4,0] + c[B19,0] + 100 delta[B19,B4,0] <= 78.5
 PM[B19,B4,1]: - c[B4,1] + c[B19,1] + 10000 delta[B19,B4,1] <= 9979.5
 PM[B19,B5,0]: - c[B5,0] + c[B19,0] + 100 delta[B19,B5,0] <= 78.5
 PM[B19,B5,1]: - c[B5,1] + c[B19,1] + 10000 delta[B19,B5,1] <= 9983
 PM[B19,B6,0]: - c[B6,0] + c[B19,0] + 100 delta[B19,B6,0] <= 74
 PM[B19,B6,1]: - c[B6,1] + c[B19,1] + 10000 delta[B19,B6,1] <= 9982
 PM[B19,B7,0]: - c[B7,0] + c[B19,0] + 95 delta[B19,B7,0] <= 69
 PM[B19,B7,1]: - c[B7,1] + c[B19,1] + 10000 delta[B19,B7,1] <= 9982
 PM[B19,B8,0]: - c[B8,0] + c[B19,0] + 94 delta[B19,B8,0] <= 72
 PM[B19,B8,1]: - c[B8,1] + c[B19,1] + 9997 delta[B19,B8,1] <= 9975
 PM[B19,B9,0]: - c[B9,0] + c[B19,0] + 99 delta[B19,B9,0] <= 75
 PM[B19,B9,1]: - c[B9,1] + c[B19,1] + 10000 delta[B19,B9,1] <= 9981.5
 PM[B19,B10,0]: - c[B10,0] + c[B19,0] + 100 delta[B19,B10,0] <= 76.5
 PM[B19,B10,1]: - c[B10,1] + c[B19,1] + 10000 delta[B19,B10,1] <= 9981
 PM[B19,B11,0]: - c[B11,0] + c[B19,0] + 96 delta[B19,B11,0] <= 73
 PM[B19,B11,1]: - c[B11,1] + c[B19,1] + 9994 delta[B19,B11,1] <= 9975
 PM[B19,B12,0]: - c[B12,0] + c[B19,0] + 100 delta[B19,B12,0] <= 72
 PM[B19,B12,1]: - c[B12,1] + c[B19,1] + 9999 delta[B19,B12,1] <= 9979
 PM[B19,B13,0]: - c[B13,0] + c[B19,0] + 97 delta[B19,B13,0] <= 71.5
 PM[B19,B13,1]: - c[B13,1] + c[B19,1] + 10000 delta[B19,B13,1] <= 9982
 PM[B19,B14,0]: - c[B14,0] + c[B19,0] + 98 delta[B19,B14,0] <= 72.5
 PM[B19,B14,1]: - c[B14,1] + c[B19,1] + 9997 delta[B19,B14,1] <= 9978.5
 PM[B19,B15,0]: - c[B15,0] + c[B19,0] + 100 delta[B19,B15,0] <= 73.5
 PM[B19,B15,1]: - c[B15,1] + c[B19,1] + 9991 delta[B19,B15,1] <= 9970
 PM[B19,B16,0]: - c[B16,0] + c[B19,0] + 100 delta[B19,B16,0] <= 75
 PM[B19,B16,1]: - c[B16,1] + c[B19,1] + 9995 delta[B19,B16,1] <= 9977
 PM[B19,B17,0]: - c[B17,0] + c[B19,0] + 91 delta[B19,B17,0] <= 65.5
 PM[B19,B17,1]: - c[B17,1] + c[B19,1] + 9991 delta[B19,B17,1] <= 9960.5
 PM[B19,B18,0]: - c[B18,0] + c[B19,0] + 96 delta[B19,B18,0] <= 67.5
 PM[B19,B18,1]: - c[B18,1] + c[B19,1] + 10000 delta[B19,B18,1] <= 9982.5
 PM[B19,B20,0]: c[B19,0] - c[B20,0] + 100 delta[B19,B20,0] <= 73.5
 PM[B19,B20,1]: c[B19,1] - c[B20,1] + 9991 delta[B19,B20,1] <= 9971
 PM[B19,B21,0]: c[B19,0] - c[B21,0] + 100 delta[B19,B21,0] <= 70.5
 PM[B19,B21,1]: c[B19,1] - c[B21,1] + 9994 delta[B19,B21,1] <= 9976
 PM[B19,B22,0]: c[B19,0] - c[B22,0] + 100 delta[B19,B22,0] <= 77
 PM[B19,B22,1]: c[B19,1] - c[B22,1] + 9991 delta[B19,B22,1] <= 9966
 PM[B19,B23,0]: c[B19,0] - c[B23,0] + 100 delta[B19,B23,0] <= 77.5
 PM[B19,B23,1]: c[B19,1] - c[B23,1] + 10000 delta[B19,B23,1] <= 9978
 PM[B19,B24,0]: c[B19,0] - c[B24,0] + 91 delta[B19,B24,0] <= 67.5
 PM[B19,B24,1]: c[B19,1] - c[B24,1] + 9991 delta[B19,B24,1] <= 9963.5
 PM[B19,B25,0]: c[B19,0] - c[B25,0] + 100 delta[B19,B25,0] <= 73.5
 PM[B19,B25,1]: c[B19,1] - c[B25,1] + 10000 delta[B19,B25,1] <= 9981.5
 PM[B19,B26,0]: c[B19,0] - c[B26,0] + 100 delta[B19,B26,0] <= 78
 PM[B19,B26,1]: c[B19,1] - c[B26,1] + 10000 delta[B19,B26,1] <= 9982.5
 PM[B19,B27,0]: c[B19,0] - c[B27,0] + 99 delta[B19,B27,0] <= 76.5
 PM[B19,B27,1]: c[B19,1] - c[B27,1] + 9998 delta[B19,B27,1] <= 9974.5
 PM[B19,B28,0]: c[B19,0] - c[B28,0] + 100 delta[B19,B28,0] <= 73
 PM[B19,B28,1]: c[B19,1] - c[B28,1] + 10000 delta[B19,B28,1] <= 9982.5
 PM[B19,B29,0]: c[B19,0] - c[B29,0] + 89 delta[B19,B29,0] <= 62.5
 PM[B19,B29,1]: c[B19,1] - c[B29,1] + 9993 delta[B19,B29,1] <= 9971.5
 PM[B19,B30,0]: c[B19,0] - c[B30,0] + 97 delta[B19,B30,0] <= 75.5
 PM[B19,B30,1]: c[B19,1] - c[B30,1] + 10000 delta[B19,B30,1] <= 9976
 PM[B19,B31,0]: c[B19,0] - c[B31,0] + 100 delta[B19,B31,0] <= 72.5
 PM[B19,B31,1]: c[B19,1] - c[B31,1] + 10000 delta[B19,B31,1] <= 9977.5
 PM[B19,B32,0]: c[B19,0] - c[B32,0] + 90 delta[B19,B32,0] <= 65.5
 PM[B19,B32,1]: c[B19,1] - c[B32,1] + 9996 delta[B19,B32,1] <= 9977.5
 PM[B19,B33,0]: c[B19,0] - c[B33,0] + 91 delta[B19,B33,0] <= 65
 PM[B19,B33,1]: c[B19,1] - c[B33,1] + 10000 delta[B19,B33,1] <= 9983
 PM[B19,B34,0]: c[B19,0] - c[B34,0] + 100 delta[B19,B34,0] <= 79
 PM[B19,B34,1]: c[B19,1] - c[B34,1] + 10000 delta[B19,B34,1] <= 9979.5
 PM[B19,B35,0]: c[B19,0] - c[B35,0] + 91 delta[B19,B35,0] <= 66.5
 PM[B19,B35,1]: c[B19,1] - c[B35,1] + 9991 delta[B19,B35,1] <= 9972.5
 PM[B19,B36,0]: c[B19,0] - c[B36,0] + 100 delta[B19,B36,0] <= 76.5
 PM[B19,B36,1]: c[B19,1] - c[B36,1] + 10000 delta[B19,B36,1] <= 9980.5
 PM[B19,B37,0]: c[B19,0] - c[B37,0] + 95 delta[B19,B37,0] <= 73.5
 PM[B19,B37,1]: c[B19,1] - c[B37,1] + 10000 delta[B19,B37,1] <= 9982.5
 PM[B19,B38,0]: c[B19,0] - c[B38,0] + 92 delta[B19,B38,0] <= 65
 PM[B19,B38,1]: c[B19,1] - c[B38,1] + 10000 delta[B19,B38,1] <= 9979.5
 PM[B19,B39,0]: c[B19,0] - c[B39,0] + 90 delta[B19,B39,0] <= 62.5
 PM[B19,B39,1]: c[B19,1] - c[B39,1] + 10000 delta[B19,B39,1] <= 9975.5
 PM[B19,B40,0]: c[B19,0] - c[B40,0] + 91 delta[B19,B40,0] <= 67.5
 PM[B19,B40,1]: c[B19,1] - c[B40,1] + 10000 delta[B19,B40,1] <= 9983
 PM[B19,B41,0]: c[B19,0] - c[B41,0] + 100 delta[B19,B41,0] <= 77
 PM[B19,B41,1]: c[B19,1] - c[B41,1] + 10000 delta[B19,B41,1] <= 9981
 PM[B19,B42,0]: c[B19,0] - c[B42,0] + 100 delta[B19,B42,0] <= 74
 PM[B19,B42,1]: c[B19,1] - c[B42,1] + 9991 delta[B19,B42,1] <= 9966.5
 PM[B19,B43,0]: c[B19,0] - c[B43,0] + 95 delta[B19,B43,0] <= 68.5
 PM[B19,B43,1]: c[B19,1] - c[B43,1] + 9994 delta[B19,B43,1] <= 9975.5
 PM[B19,B44,0]: c[B19,0] - c[B44,0] + 100 delta[B19,B44,0] <= 73.5
 PM[B19,B44,1]: c[B19,1] - c[B44,1] + 9995 delta[B19,B44,1] <= 9976
 PM[B19,B45,0]: c[B19,0] - c[B45,0] + 100 delta[B19,B45,0] <= 76.5
 PM[B19,B45,1]: c[B19,1] - c[B45,1] + 9991 delta[B19,B45,1] <= 9969
 PM[B19,B46,0]: c[B19,0] - c[B46,0] + 92 delta[B19,B46,0] <= 69
 PM[B19,B46,1]: c[B19,1] - c[B46,1] + 10000 delta[B19,B46,1] <= 9982.5
 PM[B19,B47,0]: c[B19,0] - c[B47,0] + 100 delta[B19,B47,0] <= 75.5
 PM[B19,B47,1]: c[B19,1] - c[B47,1] + 10000 delta[B19,B47,1] <= 9980.5
 PM[B19,B48,0]: c[B19,0] - c[B48,0] + 100 delta[B19,B48,0] <= 74
 PM[B19,B48,1]: c[B19,1] - c[B48,1] + 10000 delta[B19,B48,1] <= 9981.5
 PM[B19,B49,0]: c[B19,0] - c[B49,0] + 100 delta[B19,B49,0] <= 75.5
 PM[B19,B49,1]: c[B19,1] - c[B49,1] + 9996 delta[B19,B49,1] <= 9978.5
 PM[B20,B0,0]: - c[B0,0] + c[B20,0] + 100 delta[B20,B0,0] <= 87.5
 PM[B20,B0,1]: - c[B0,1] + c[B20,1] + 10000 delta[B20,B0,1] <= 9983.5
 PM[B20,B1,0]: - c[B1,0] + c[B20,0] + 100 delta[B20,B1,0] <= 70
 PM[B20,B1,1]: - c[B1,1] + c[B20,1] + 10000 delta[B20,B1,1] <= 9988.5
 PM[B20,B2,0]: - c[B2,0] + c[B20,0] + 100 delta[B20,B2,0] <= 89
 PM[B20,B2,1]: - c[B2,1] + c[B20,1] + 10000 delta[B20,B2,1] <= 9989.5
 PM[B20,B3,0]: - c[B3,0] + c[B20,0] + 100 delta[B20,B3,0] <= 74
 PM[B20,B3,1]: - c[B3,1] + c[B20,1] + 10000 delta[B20,B3,1] <= 9984.5
 PM[B20,B4,0]: - c[B4,0] + c[B20,0] + 100 delta[B20,B4,0] <= 89
 PM[B20,B4,1]: - c[B4,1] + c[B20,1] + 10000 delta[B20,B4,1] <= 9988.5
 PM[B20,B5,0]: - c[B5,0] + c[B20,0] + 100 delta[B20,B5,0] <= 89
 PM[B20,B5,1]: - c[B5,1] + c[B20,1] + 10000 delta[B20,B5,1] <= 9992
 PM[B20,B6,0]: - c[B6,0] + c[B20,0] + 100 delta[B20,B6,0] <= 84.5
 PM[B20,B6,1]: - c[B6,1] + c[B20,1] + 10000 delta[B20,B6,1] <= 9991
 PM[B20,B7,0]: - c[B7,0] + c[B20,0] + 100 delta[B20,B7,0] <= 79.5
 PM[B20,B7,1]: - c[B7,1] + c[B20,1] + 10000 delta[B20,B7,1] <= 9991
 PM[B20,B8,0]: - c[B8,0] + c[B20,0] + 100 delta[B20,B8,0] <= 82.5
 PM[B20,B8,1]: - c[B8,1] + c[B20,1] + 10000 delta[B20,B8,1] <= 9984
 PM[B20,B9,0]: - c[B9,0] + c[B20,0] + 100 delta[B20,B9,0] <= 85.5
 PM[B20,B9,1]: - c[B9,1] + c[B20,1] + 10000 delta[B20,B9,1] <= 9990.5
 PM[B20,B10,0]: - c[B10,0] + c[B20,0] + 100 delta[B20,B10,0] <= 87
 PM[B20,B10,1]: - c[B10,1] + c[B20,1] + 10000 delta[B20,B10,1] <= 9990
 PM[B20,B11,0]: - c[B11,0] + c[B20,0] + 100 delta[B20,B11,0] <= 83.5
 PM[B20,B11,1]: - c[B11,1] + c[B20,1] + 10000 delta[B20,B11,1] <= 9984
 PM[B20,B12,0]: - c[B12,0] + c[B20,0] + 100 delta[B20,B12,0] <= 82.5
 PM[B20,B12,1]: - c[B12,1] + c[B20,1] + 10000 delta[B20,B12,1] <= 9988
 PM[B20,B13,0]: - c[B13,0] + c[B20,0] + 100 delta[B20,B13,0] <= 82
 PM[B20,B13,1]: - c[B13,1] + c[B20,1] + 10000 delta[B20,B13,1] <= 9991
 PM[B20,B14,0]: - c[B14,0] + c[B20,0] + 100 delta[B20,B14,0] <= 83
 PM[B20,B14,1]: - c[B14,1] + c[B20,1] + 10000 delta[B20,B14,1] <= 9987.5
 PM[B20,B15,0]: - c[B15,0] + c[B20,0] + 100 delta[B20,B15,0] <= 84
 PM[B20,B15,1]: - c[B15,1] + c[B20,1] + 10000 delta[B20,B15,1] <= 9979
 PM[B20,B16,0]: - c[B16,0] + c[B20,0] + 100 delta[B20,B16,0] <= 85.5
 PM[B20,B16,1]: - c[B16,1] + c[B20,1] + 10000 delta[B20,B16,1] <= 9986
 PM[B20,B17,0]: - c[B17,0] + c[B20,0] + 100 delta[B20,B17,0] <= 76
 PM[B20,B17,1]: - c[B17,1] + c[B20,1] + 10000 delta[B20,B17,1] <= 9969.5
 PM[B20,B18,0]: - c[B18,0] + c[B20,0] + 100 delta[B20,B18,0] <= 78
 PM[B20,B18,1]: - c[B18,1] + c[B20,1] + 10000 delta[B20,B18,1] <= 9991.5
 PM[B20,B19,0]: - c[B19,0] + c[B20,0] + 100 delta[B20,B19,0] <= 85.5
 PM[B20,B19,1]: - c[B19,1] + c[B20,1] + 10000 delta[B20,B19,1] <= 9990
 PM[B20,B21,0]: c[B20,0] - c[B21,0] + 100 delta[B20,B21,0] <= 81
 PM[B20,B21,1]: c[B20,1] - c[B21,1] + 10000 delta[B20,B21,1] <= 9985
 PM[B20,B22,0]: c[B20,0] - c[B22,0] + 100 delta[B20,B22,0] <= 87.5
 PM[B20,B22,1]: c[B20,1] - c[B22,1] + 10000 delta[B20,B22,1] <= 9975
 PM[B20,B23,0]: c[B20,0] - c[B23,0] + 100 delta[B20,B23,0] <= 88
 PM[B20,B23,1]: c[B20,1] - c[B23,1] + 10000 delta[B20,B23,1] <= 9987
 PM[B20,B24,0]: c[B20,0] - c[B24,0] + 100 delta[B20,B24,0] <= 78
 PM[B20,B24,1]: c[B20,1] - c[B24,1] + 10000 delta[B20,B24,1] <= 9972.5
 PM[B20,B25,0]: c[B20,0] - c[B25,0] + 100 delta[B20,B25,0] <= 84
 PM[B20,B25,1]: c[B20,1] - c[B25,1] + 10000 delta[B20,B25,1] <= 9990.5
 PM[B20,B26,0]: c[B20,0] - c[B26,0] + 100 delta[B20,B26,0] <= 88.5
 PM[B20,B26,1]: c[B20,1] - c[B26,1] + 10000 delta[B20,B26,1] <= 9991.5
 PM[B20,B27,0]: c[B20,0] - c[B27,0] + 100 delta[B20,B27,0] <= 87
 PM[B20,B27,1]: c[B20,1] - c[B27,1] + 10000 delta[B20,B27,1] <= 9983.5
 PM[B20,B28,0]: c[B20,0] - c[B28,0] + 100 delta[B20,B28,0] <= 83.5
 PM[B20,B28,1]: c[B20,1] - c[B28,1] + 10000 delta[B20,B28,1] <= 9991.5
 PM[B20,B29,0]: c[B20,0] - c[B29,0] + 100 delta[B20,B29,0] <= 73
 PM[B20,B29,1]: c[B20,1] - c[B29,1] + 10000 delta[B20,B29,1] <= 9980.5
 PM[B20,B30,0]: c[B20,0] - c[B30,0] + 100 delta[B20,B30,0] <= 86
 PM[B20,B30,1]: c[B20,1] - c[B30,1] + 10000 delta[B20,B30,1] <= 9985
 PM[B20,B31,0]: c[B20,0] - c[B31,0] + 100 delta[B20,B31,0] <= 83
 PM[B20,B31,1]: c[B20,1] - c[B31,1] + 10000 delta[B20,B31,1] <= 9986.5
 PM[B20,B32,0]: c[B20,0] - c[B32,0] + 100 delta[B20,B32,0] <= 76
 PM[B20,B32,1]: c[B20,1] - c[B32,1] + 10000 delta[B20,B32,1] <= 9986.5
 PM[B20,B33,0]: c[B20,0] - c[B33,0] + 100 delta[B20,B33,0] <= 75.5
 PM[B20,B33,1]: c[B20,1] - c[B33,1] + 10000 delta[B20,B33,1] <= 9992
 PM[B20,B34,0]: c[B20,0] - c[B34,0] + 100 delta[B20,B34,0] <= 89.5
 PM[B20,B34,1]: c[B20,1] - c[B34,1] + 10000 delta[B20,B34,1] <= 9988.5
 PM[B20,B35,0]: c[B20,0] - c[B35,0] + 100 delta[B20,B35,0] <= 77
 PM[B20,B35,1]: c[B20,1] - c[B35,1] + 10000 delta[B20,B35,1] <= 9981.5
 PM[B20,B36,0]: c[B20,0] - c[B36,0] + 100 delta[B20,B36,0] <= 87
 PM[B20,B36,1]: c[B20,1] - c[B36,1] + 10000 delta[B20,B36,1] <= 9989.5
 PM[B20,B37,0]: c[B20,0] - c[B37,0] + 100 delta[B20,B37,0] <= 84
 PM[B20,B37,1]: c[B20,1] - c[B37,1] + 10000 delta[B20,B37,1] <= 9991.5
 PM[B20,B38,0]: c[B20,0] - c[B38,0] + 100 delta[B20,B38,0] <= 75.5
 PM[B20,B38,1]: c[B20,1] - c[B38,1] + 10000 delta[B20,B38,1] <= 9988.5
 PM[B20,B39,0]: c[B20,0] - c[B39,0] + 100 delta[B20,B39,0] <= 73
 PM[B20,B39,1]: c[B20,1] - c[B39,1] + 10000 delta[B20,B39,1] <= 9984.5
 PM[B20,B40,0]: c[B20,0] - c[B40,0] + 100 delta[B20,B40,0] <= 78
 PM[B20,B40,1]: c[B20,1] - c[B40,1] + 10000 delta[B20,B40,1] <= 9992
 PM[B20,B41,0]: c[B20,0] - c[B41,0] + 100 delta[B20,B41,0] <= 87.5
 PM[B20,B41,1]: c[B20,1] - c[B41,1] + 10000 delta[B20,B41,1] <= 9990
 PM[B20,B42,0]: c[B20,0] - c[B42,0] + 100 delta[B20,B42,0] <= 84.5
 PM[B20,B42,1]: c[B20,1] - c[B42,1] + 10000 delta[B20,B42,1] <= 9975.5
 PM[B20,B43,0]: c[B20,0] - c[B43,0] + 100 delta[B20,B43,0] <= 79
 PM[B20,B43,1]: c[B20,1] - c[B43,1] + 10000 delta[B20,B43,1] <= 9984.5
 PM[B20,B44,0]: c[B20,0] - c[B44,0] + 100 delta[B20,B44,0] <= 84
 PM[B20,B44,1]: c[B20,1] - c[B44,1] + 10000 delta[B20,B44,1] <= 9985
 PM[B20,B45,0]: c[B20,0] - c[B45,0] + 100 delta[B20,B45,0] <= 87
 PM[B20,B45,1]: c[B20,1] - c[B45,1] + 10000 delta[B20,B45,1] <= 9978
 PM[B20,B46,0]: c[B20,0] - c[B46,0] + 100 delta[B20,B46,0] <= 79.5
 PM[B20,B46,1]: c[B20,1] - c[B46,1] + 10000 delta[B20,B46,1] <= 9991.5
 PM[B20,B47,0]: c[B20,0] - c[B47,0] + 100 delta[B20,B47,0] <= 86
 PM[B20,B47,1]: c[B20,1] - c[B47,1] + 10000 delta[B20,B47,1] <= 9989.5
 PM[B20,B48,0]: c[B20,0] - c[B48,0] + 100 delta[B20,B48,0] <= 84.5
 PM[B20,B48,1]: c[B20,1] - c[B48,1] + 10000 delta[B20,B48,1] <= 9990.5
 PM[B20,B49,0]: c[B20,0] - c[B49,0] + 100 delta[B20,B49,0] <= 86
 PM[B20,B49,1]: c[B20,1] - c[B49,1] + 10000 delta[B20,B49,1] <= 9987.5
 PM[B21,B0,0]: - c[B0,0] + c[B21,0] + 100 delta[B21,B0,0] <= 84.5
 PM[B21,B0,1]: - c[B0,1] + c[B21,1] + 9997 delta[B21,B0,1] <= 9981.5
 PM[B21,B1,0]: - c[B1,0] + c[B21,0] + 100 delta[B21,B1,0] <= 67
 PM[B21,B1,1]: - c[B1,1] + c[B21,1] + 10000 delta[B21,B1,1] <= 9986.5
 PM[B21,B2,0]: - c[B2,0] + c[B21,0] + 100 delta[B21,B2,0] <= 86
 PM[B21,B2,1]: - c[B2,1] + c[B21,1] + 10000 delta[B21,B2,1] <= 9987.5
 PM[B21,B3,0]: - c[B3,0] + c[B21,0] + 100 delta[B21,B3,0] <= 71
 PM[B21,B3,1]: - c[B3,1] + c[B21,1] + 9997 delta[B21,B3,1] <= 9982.5
 PM[B21,B4,0]: - c[B4,0] + c[B21,0] + 100 delta[B21,B4,0] <= 86
 PM[B21,B4,1]: - c[B4,1] + c[B21,1] + 10000 delta[B21,B4,1] <= 9986.5
 PM[B21,B5,0]: - c[B5,0] + c[B21,0] + 100 delta[B21,B5,0] <= 86
 PM[B21,B5,1]: - c[B5,1] + c[B21,1] + 10000 delta[B21,B5,1] <= 9990
 PM[B21,B6,0]: - c[B6,0] + c[B21,0] + 100 delta[B21,B6,0] <= 81.5
 PM[B21,B6,1]: - c[B6,1] + c[B21,1] + 10000 delta[B21,B6,1] <= 9989
 PM[B21,B7,0]: - c[B7,0] + c[B21,0] + 100 delta[B21,B7,0] <= 76.5
 PM[B21,B7,1]: - c[B7,1] + c[B21,1] + 10000 delta[B21,B7,1] <= 9989
 PM[B21,B8,0]: - c[B8,0] + c[B21,0] + 100 delta[B21,B8,0] <= 79.5
 PM[B21,B8,1]: - c[B8,1] + c[B21,1] + 9997 delta[B21,B8,1] <= 9982
 PM[B21,B9,0]: - c[B9,0] + c[B21,0] + 100 delta[B21,B9,0] <= 82.5
 PM[B21,B9,1]: - c[B9,1] + c[B21,1] + 10000 delta[B21,B9,1] <= 9988.5
 PM[B21,B10,0]: - c[B10,0] + c[B21,0] + 100 delta[B21,B10,0] <= 84
 PM[B21,B10,1]: - c[B10,1] + c[B21,1] + 10000 delta[B21,B10,1] <= 9988
 PM[B21,B11,0]: - c[B11,0] + c[B21,0] + 100 delta[B21,B11,0] <= 80.5
 PM[B21,B11,1]: - c[B11,1] + c[B21,1] + 9997 delta[B21,B11,1] <= 9982
 PM[B21,B12,0]: - c[B12,0] + c[B21,0] + 100 delta[B21,B12,0] <= 79.5
 PM[B21,B12,1]: - c[B12,1] + c[B21,1] + 9999 delta[B21,B12,1] <= 9986
 PM[B21,B13,0]: - c[B13,0] + c[B21,0] + 100 delta[B21,B13,0] <= 79
 PM[B21,B13,1]: - c[B13,1] + c[B21,1] + 10000 delta[B21,B13,1] <= 9989
 PM[B21,B14,0]: - c[B14,0] + c[B21,0] + 100 delta[B21,B14,0] <= 80
 PM[B21,B14,1]: - c[B14,1] + c[B21,1] + 9997 delta[B21,B14,1] <= 9985.5
 PM[B21,B15,0]: - c[B15,0] + c[B21,0] + 100 delta[B21,B15,0] <= 81
 PM[B21,B15,1]: - c[B15,1] + c[B21,1] + 9997 delta[B21,B15,1] <= 9977
 PM[B21,B16,0]: - c[B16,0] + c[B21,0] + 100 delta[B21,B16,0] <= 82.5
 PM[B21,B16,1]: - c[B16,1] + c[B21,1] + 9997 delta[B21,B16,1] <= 9984
 PM[B21,B17,0]: - c[B17,0] + c[B21,0] + 100 delta[B21,B17,0] <= 73
 PM[B21,B17,1]: - c[B17,1] + c[B21,1] + 9997 delta[B21,B17,1] <= 9967.5
 PM[B21,B18,0]: - c[B18,0] + c[B21,0] + 100 delta[B21,B18,0] <= 75
 PM[B21,B18,1]: - c[B18,1] + c[B21,1] + 10000 delta[B21,B18,1] <= 9989.5
 PM[B21,B19,0]: - c[B19,0] + c[B21,0] + 100 delta[B21,B19,0] <= 82.5
 PM[B21,B19,1]: - c[B19,1] + c[B21,1] + 10000 delta[B21,B19,1] <= 9988
 PM[B21,B20,0]: - c[B20,0] + c[B21,0] + 100 delta[B21,B20,0] <= 81
 PM[B21,B20,1]: - c[B20,1] + c[B21,1] + 9997 delta[B21,B20,1] <= 9978
 PM[B21,B22,0]: c[B21,0] - c[B22,0] + 100 delta[B21,B22,0] <= 84.5
 PM[B21,B22,1]: c[B21,1] - c[B22,1] + 9997 delta[B21,B22,1] <= 9973
 PM[B21,B23,0]: c[B21,0] - c[B23,0] + 100 delta[B21,B23,0] <= 85
 PM[B21,B23,1]: c[B21,1] - c[B23,1] + 10000 delta[B21,B23,1] <= 9985
 PM[B21,B24,0]: c[B21,0] - c[B24,0] + 100 delta[B21,B24,0] <= 75
 PM[B21,B24,1]: c[B21,1] - c[B24,1] + 9997 delta[B21,B24,1] <= 9970.5
 PM[B21,B25,0]: c[B21,0] - c[B25,0] + 100 delta[B21,B25,0] <= 81
 PM[B21,B25,1]: c[B21,1] - c[B25,1] + 10000 delta[B21,B25,1] <= 9988.5
 PM[B21,B26,0]: c[B21,0] - c[B26,0] + 100 delta[B21,B26,0] <= 85.5
 PM[B21,B26,1]: c[B21,1] - c[B26,1] + 10000 delta[B21,B26,1] <= 9989.5
 PM[B21,B27,0]: c[B21,0] - c[B27,0] + 100 delta[B21,B27,0] <= 84
 PM[B21,B27,1]: c[B21,1] - c[B27,1] + 9998 delta[B21,B27,1] <= 9981.5
 PM[B21,B28,0]: c[B21,0] - c[B28,0] + 100 delta[B21,B28,0] <= 80.5
 PM[B21,B28,1]: c[B21,1] - c[B28,1] + 10000 delta[B21,B28,1] <= 9989.5
 PM[B21,B29,0]: c[B21,0] - c[B29,0] + 100 delta[B21,B29,0] <= 70
 PM[B21,B29,1]: c[B21,1] - c[B29,1] + 9997 delta[B21,B29,1] <= 9978.5
 PM[B21,B30,0]: c[B21,0] - c[B30,0] + 100 delta[B21,B30,0] <= 83
 PM[B21,B30,1]: c[B21,1] - c[B30,1] + 10000 delta[B21,B30,1] <= 9983
 PM[B21,B31,0]: c[B21,0] - c[B31,0] + 100 delta[B21,B31,0] <= 80
 PM[B21,B31,1]: c[B21,1] - c[B31,1] + 10000 delta[B21,B31,1] <= 9984.5
 PM[B21,B32,0]: c[B21,0] - c[B32,0] + 100 delta[B21,B32,0] <= 73
 PM[B21,B32,1]: c[B21,1] - c[B32,1] + 9997 delta[B21,B32,1] <= 9984.5
 PM[B21,B33,0]: c[B21,0] - c[B33,0] + 100 delta[B21,B33,0] <= 72.5
 PM[B21,B33,1]: c[B21,1] - c[B33,1] + 10000 delta[B21,B33,1] <= 9990
 PM[B21,B34,0]: c[B21,0] - c[B34,0] + 100 delta[B21,B34,0] <= 86.5
 PM[B21,B34,1]: c[B21,1] - c[B34,1] + 10000 delta[B21,B34,1] <= 9986.5
 PM[B21,B35,0]: c[B21,0] - c[B35,0] + 100 delta[B21,B35,0] <= 74
 PM[B21,B35,1]: c[B21,1] - c[B35,1] + 9997 delta[B21,B35,1] <= 9979.5
 PM[B21,B36,0]: c[B21,0] - c[B36,0] + 100 delta[B21,B36,0] <= 84
 PM[B21,B36,1]: c[B21,1] - c[B36,1] + 10000 delta[B21,B36,1] <= 9987.5
 PM[B21,B37,0]: c[B21,0] - c[B37,0] + 100 delta[B21,B37,0] <= 81
 PM[B21,B37,1]: c[B21,1] - c[B37,1] + 10000 delta[B21,B37,1] <= 9989.5
 PM[B21,B38,0]: c[B21,0] - c[B38,0] + 100 delta[B21,B38,0] <= 72.5
 PM[B21,B38,1]: c[B21,1] - c[B38,1] + 10000 delta[B21,B38,1] <= 9986.5
 PM[B21,B39,0]: c[B21,0] - c[B39,0] + 100 delta[B21,B39,0] <= 70
 PM[B21,B39,1]: c[B21,1] - c[B39,1] + 10000 delta[B21,B39,1] <= 9982.5
 PM[B21,B40,0]: c[B21,0] - c[B40,0] + 100 delta[B21,B40,0] <= 75
 PM[B21,B40,1]: c[B21,1] - c[B40,1] + 10000 delta[B21,B40,1] <= 9990
 PM[B21,B41,0]: c[B21,0] - c[B41,0] + 100 delta[B21,B41,0] <= 84.5
 PM[B21,B41,1]: c[B21,1] - c[B41,1] + 10000 delta[B21,B41,1] <= 9988
 PM[B21,B42,0]: c[B21,0] - c[B42,0] + 100 delta[B21,B42,0] <= 81.5
 PM[B21,B42,1]: c[B21,1] - c[B42,1] + 9997 delta[B21,B42,1] <= 9973.5
 PM[B21,B43,0]: c[B21,0] - c[B43,0] + 100 delta[B21,B43,0] <= 76
 PM[B21,B43,1]: c[B21,1] - c[B43,1] + 9997 delta[B21,B43,1] <= 9982.5
 PM[B21,B44,0]: c[B21,0] - c[B44,0] + 100 delta[B21,B44,0] <= 81
 PM[B21,B44,1]: c[B21,1] - c[B44,1] + 9997 delta[B21,B44,1] <= 9983
 PM[B21,B45,0]: c[B21,0] - c[B45,0] + 100 delta[B21,B45,0] <= 84
 PM[B21,B45,1]: c[B21,1] - c[B45,1] + 9997 delta[B21,B45,1] <= 9976
 PM[B21,B46,0]: c[B21,0] - c[B46,0] + 100 delta[B21,B46,0] <= 76.5
 PM[B21,B46,1]: c[B21,1] - c[B46,1] + 10000 delta[B21,B46,1] <= 9989.5
 PM[B21,B47,0]: c[B21,0] - c[B47,0] + 100 delta[B21,B47,0] <= 83
 PM[B21,B47,1]: c[B21,1] - c[B47,1] + 10000 delta[B21,B47,1] <= 9987.5
 PM[B21,B48,0]: c[B21,0] - c[B48,0] + 100 delta[B21,B48,0] <= 81.5
 PM[B21,B48,1]: c[B21,1] - c[B48,1] + 10000 delta[B21,B48,1] <= 9988.5
 PM[B21,B49,0]: c[B21,0] - c[B49,0] + 100 delta[B21,B49,0] <= 83
 PM[B21,B49,1]: c[B21,1] - c[B49,1] + 9997 delta[B21,B49,1] <= 9985.5
 PM[B22,B0,0]: - c[B0,0] + c[B22,0] + 100 delta[B22,B0,0] <= 91
 PM[B22,B0,1]: - c[B0,1] + c[B22,1] + 10000 delta[B22,B0,1] <= 9981.5
 PM[B22,B1,0]: - c[B1,0] + c[B22,0] + 100 delta[B22,B1,0] <= 73.5
 PM[B22,B1,1]: - c[B1,1] + c[B22,1] + 10000 delta[B22,B1,1] <= 9986.5
 PM[B22,B2,0]: - c[B2,0] + c[B22,0] + 100 delta[B22,B2,0] <= 92.5
 PM[B22,B2,1]: - c[B2,1] + c[B22,1] + 10000 delta[B22,B2,1] <= 9987.5
 PM[B22,B3,0]: - c[B3,0] + c[B22,0] + 100 delta[B22,B3,0] <= 77.5
 PM[B22,B3,1]: - c[B3,1] + c[B22,1] + 10000 delta[B22,B3,1] <= 9982.5
 PM[B22,B4,0]: - c[B4,0] + c[B22,0] + 100 delta[B22,B4,0] <= 92.5
 PM[B22,B4,1]: - c[B4,1] + c[B22,1] + 10000 delta[B22,B4,1] <= 9986.5
 PM[B22,B5,0]: - c[B5,0] + c[B22,0] + 100 delta[B22,B5,0] <= 92.5
 PM[B22,B5,1]: - c[B5,1] + c[B22,1] + 10000 delta[B22,B5,1] <= 9990
 PM[B22,B6,0]: - c[B6,0] + c[B22,0] + 100 delta[B22,B6,0] <= 88
 PM[B22,B6,1]: - c[B6,1] + c[B22,1] + 10000 delta[B22,B6,1] <= 9989
 PM[B22,B7,0]: - c[B7,0] + c[B22,0] + 100 delta[B22,B7,0] <= 83
 PM[B22,B7,1]: - c[B7,1] + c[B22,1] + 10000 delta[B22,B7,1] <= 9989
 PM[B22,B8,0]: - c[B8,0] + c[B22,0] + 100 delta[B22,B8,0] <= 86
 PM[B22,B8,1]: - c[B8,1] + c[B22,1] + 10000 delta[B22,B8,1] <= 9982
 PM[B22,B9,0]: - c[B9,0] + c[B22,0] + 100 delta[B22,B9,0] <= 89
 PM[B22,B9,1]: - c[B9,1] + c[B22,1] + 10000 delta[B22,B9,1] <= 9988.5
 PM[B22,B10,0]: - c[B10,0] + c[B22,0] + 100 delta[B22,B10,0] <= 90.5
 PM[B22,B10,1]: - c[B10,1] + c[B22,1] + 10000 delta[B22,B10,1] <= 9988
 PM[B22,B11,0]: - c[B11,0] + c[B22,0] + 100 delta[B22,B11,0] <= 87
 PM[B22,B11,1]: - c[B11,1] + c[B22,1] + 10000 delta[B22,B11,1] <= 9982
 PM[B22,B12,0]: - c[B12,0] + c[B22,0] + 100 delta[B22,B12,0] <= 86
 PM[B22,B12,1]: - c[B12,1] + c[B22,1] + 10000 delta[B22,B12,1] <= 9986
 PM[B22,B13,0]: - c[B13,0] + c[B22,0] + 100 delta[B22,B13,0] <= 85.5
 PM[B22,B13,1]: - c[B13,1] + c[B22,1] + 10000 delta[B22,B13,1] <= 9989
 PM[B22,B14,0]: - c[B14,0] + c[B22,0] + 100 delta[B22,B14,0] <= 86.5
 PM[B22,B14,1]: - c[B14,1] + c[B22,1] + 10000 delta[B22,B14,1] <= 9985.5
 PM[B22,B15,0]: - c[B15,0] + c[B22,0] + 100 delta[B22,B15,0] <= 87.5
 PM[B22,B15,1]: - c[B15,1] + c[B22,1] + 10000 delta[B22,B15,1] <= 9977
 PM[B22,B16,0]: - c[B16,0] + c[B22,0] + 100 delta[B22,B16,0] <= 89
 PM[B22,B16,1]: - c[B16,1] + c[B22,1] + 10000 delta[B22,B16,1] <= 9984
 PM[B22,B17,0]: - c[B17,0] + c[B22,0] + 100 delta[B22,B17,0] <= 79.5
 PM[B22,B17,1]: - c[B17,1] + c[B22,1] + 10000 delta[B22,B17,1] <= 9967.5
 PM[B22,B18,0]: - c[B18,0] + c[B22,0] + 100 delta[B22,B18,0] <= 81.5
 PM[B22,B18,1]: - c[B18,1] + c[B22,1] + 10000 delta[B22,B18,1] <= 9989.5
 PM[B22,B19,0]: - c[B19,0] + c[B22,0] + 100 delta[B22,B19,0] <= 89
 PM[B22,B19,1]: - c[B19,1] + c[B22,1] + 10000 delta[B22,B19,1] <= 9988
 PM[B22,B20,0]: - c[B20,0] + c[B22,0] + 100 delta[B22,B20,0] <= 87.5
 PM[B22,B20,1]: - c[B20,1] + c[B22,1] + 10000 delta[B22,B20,1] <= 9978
 PM[B22,B21,0]: - c[B21,0] + c[B22,0] + 100 delta[B22,B21,0] <= 84.5
 PM[B22,B21,1]: - c[B21,1] + c[B22,1] + 10000 delta[B22,B21,1] <= 9983
 PM[B22,B23,0]: c[B22,0] - c[B23,0] + 100 delta[B22,B23,0] <= 91.5
 PM[B22,B23,1]: c[B22,1] - c[B23,1] + 10000 delta[B22,B23,1] <= 9985
 PM[B22,B24,0]: c[B22,0] - c[B24,0] + 100 delta[B22,B24,0] <= 81.5
 PM[B22,B24,1]: c[B22,1] - c[B24,1] + 10000 delta[B22,B24,1] <= 9970.5
 PM[B22,B25,0]: c[B22,0] - c[B25,0] + 100 delta[B22,B25,0] <= 87.5
 PM[B22,B25,1]: c[B22,1] - c[B25,1] + 10000 delta[B22,B25,1] <= 9988.5
 PM[B22,B26,0]: c[B22,0] - c[B26,0] + 100 delta[B22,B26,0] <= 92
 PM[B22,B26,1]: c[B22,1] - c[B26,1] + 10000 delta[B22,B26,1] <= 9989.5
 PM[B22,B27,0]: c[B22,0] - c[B27,0] + 100 delta[B22,B27,0] <= 90.5
 PM[B22,B27,1]: c[B22,1] - c[B27,1] + 10000 delta[B22,B27,1] <= 9981.5
 PM[B22,B28,0]: c[B22,0] - c[B28,0] + 100 delta[B22,B28,0] <= 87
 PM[B22,B28,1]: c[B22,1] - c[B28,1] + 10000 delta[B22,B28,1] <= 9989.5
 PM[B22,B29,0]: c[B22,0] - c[B29,0] + 100 delta[B22,B29,0] <= 76.5
 PM[B22,B29,1]: c[B22,1] - c[B29,1] + 10000 delta[B22,B29,1] <= 9978.5
 PM[B22,B30,0]: c[B22,0] - c[B30,0] + 100 delta[B22,B30,0] <= 89.5
 PM[B22,B30,1]: c[B22,1] - c[B30,1] + 10000 delta[B22,B30,1] <= 9983
 PM[B22,B31,0]: c[B22,0] - c[B31,0] + 100 delta[B22,B31,0] <= 86.5
 PM[B22,B31,1]: c[B22,1] - c[B31,1] + 10000 delta[B22,B31,1] <= 9984.5
 PM[B22,B32,0]: c[B22,0] - c[B32,0] + 100 delta[B22,B32,0] <= 79.5
 PM[B22,B32,1]: c[B22,1] - c[B32,1] + 10000 delta[B22,B32,1] <= 9984.5
 PM[B22,B33,0]: c[B22,0] - c[B33,0] + 100 delta[B22,B33,0] <= 79
 PM[B22,B33,1]: c[B22,1] - c[B33,1] + 10000 delta[B22,B33,1] <= 9990
 PM[B22,B34,0]: c[B22,0] - c[B34,0] + 100 delta[B22,B34,0] <= 93
 PM[B22,B34,1]: c[B22,1] - c[B34,1] + 10000 delta[B22,B34,1] <= 9986.5
 PM[B22,B35,0]: c[B22,0] - c[B35,0] + 100 delta[B22,B35,0] <= 80.5
 PM[B22,B35,1]: c[B22,1] - c[B35,1] + 10000 delta[B22,B35,1] <= 9979.5
 PM[B22,B36,0]: c[B22,0] - c[B36,0] + 100 delta[B22,B36,0] <= 90.5
 PM[B22,B36,1]: c[B22,1] - c[B36,1] + 10000 delta[B22,B36,1] <= 9987.5
 PM[B22,B37,0]: c[B22,0] - c[B37,0] + 100 delta[B22,B37,0] <= 87.5
 PM[B22,B37,1]: c[B22,1] - c[B37,1] + 10000 delta[B22,B37,1] <= 9989.5
 PM[B22,B38,0]: c[B22,0] - c[B38,0] + 100 delta[B22,B38,0] <= 79
 PM[B22,B38,1]: c[B22,1] - c[B38,1] + 10000 delta[B22,B38,1] <= 9986.5
 PM[B22,B39,0]: c[B22,0] - c[B39,0] + 100 delta[B22,B39,0] <= 76.5
 PM[B22,B39,1]: c[B22,1] - c[B39,1] + 10000 delta[B22,B39,1] <= 9982.5
 PM[B22,B40,0]: c[B22,0] - c[B40,0] + 100 delta[B22,B40,0] <= 81.5
 PM[B22,B40,1]: c[B22,1] - c[B40,1] + 10000 delta[B22,B40,1] <= 9990
 PM[B22,B41,0]: c[B22,0] - c[B41,0] + 100 delta[B22,B41,0] <= 91
 PM[B22,B41,1]: c[B22,1] - c[B41,1] + 10000 delta[B22,B41,1] <= 9988
 PM[B22,B42,0]: c[B22,0] - c[B42,0] + 100 delta[B22,B42,0] <= 88
 PM[B22,B42,1]: c[B22,1] - c[B42,1] + 10000 delta[B22,B42,1] <= 9973.5
 PM[B22,B43,0]: c[B22,0] - c[B43,0] + 100 delta[B22,B43,0] <= 82.5
 PM[B22,B43,1]: c[B22,1] - c[B43,1] + 10000 delta[B22,B43,1] <= 9982.5
 PM[B22,B44,0]: c[B22,0] - c[B44,0] + 100 delta[B22,B44,0] <= 87.5
 PM[B22,B44,1]: c[B22,1] - c[B44,1] + 10000 delta[B22,B44,1] <= 9983
 PM[B22,B45,0]: c[B22,0] - c[B45,0] + 100 delta[B22,B45,0] <= 90.5
 PM[B22,B45,1]: c[B22,1] - c[B45,1] + 10000 delta[B22,B45,1] <= 9976
 PM[B22,B46,0]: c[B22,0] - c[B46,0] + 100 delta[B22,B46,0] <= 83
 PM[B22,B46,1]: c[B22,1] - c[B46,1] + 10000 delta[B22,B46,1] <= 9989.5
 PM[B22,B47,0]: c[B22,0] - c[B47,0] + 100 delta[B22,B47,0] <= 89.5
 PM[B22,B47,1]: c[B22,1] - c[B47,1] + 10000 delta[B22,B47,1] <= 9987.5
 PM[B22,B48,0]: c[B22,0] - c[B48,0] + 100 delta[B22,B48,0] <= 88
 PM[B22,B48,1]: c[B22,1] - c[B48,1] + 10000 delta[B22,B48,1] <= 9988.5
 PM[B22,B49,0]: c[B22,0] - c[B49,0] + 100 delta[B22,B49,0] <= 89.5
 PM[B22,B49,1]: c[B22,1] - c[B49,1] + 10000 delta[B22,B49,1] <= 9985.5
 PM[B23,B0,0]: - c[B0,0] + c[B23,0] + 100 delta[B23,B0,0] <= 88.5
 PM[B23,B0,1]: - c[B0,1] + c[B23,1] + 9994 delta[B23,B0,1] <= 9972.5
 PM[B23,B1,0]: - c[B1,0] + c[B23,0] + 97 delta[B23,B1,0] <= 71
 PM[B23,B1,1]: - c[B1,1] + c[B23,1] + 10000 delta[B23,B1,1] <= 9977.5
 PM[B23,B2,0]: - c[B2,0] + c[B23,0] + 100 delta[B23,B2,0] <= 90
 PM[B23,B2,1]: - c[B2,1] + c[B23,1] + 10000 delta[B23,B2,1] <= 9978.5
 PM[B23,B3,0]: - c[B3,0] + c[B23,0] + 97 delta[B23,B3,0] <= 75
 PM[B23,B3,1]: - c[B3,1] + c[B23,1] + 9996 delta[B23,B3,1] <= 9973.5
 PM[B23,B4,0]: - c[B4,0] + c[B23,0] + 100 delta[B23,B4,0] <= 90
 PM[B23,B4,1]: - c[B4,1] + c[B23,1] + 10000 delta[B23,B4,1] <= 9977.5
 PM[B23,B5,0]: - c[B5,0] + c[B23,0] + 100 delta[B23,B5,0] <= 90
 PM[B23,B5,1]: - c[B5,1] + c[B23,1] + 10000 delta[B23,B5,1] <= 9981
 PM[B23,B6,0]: - c[B6,0] + c[B23,0] + 100 delta[B23,B6,0] <= 85.5
 PM[B23,B6,1]: - c[B6,1] + c[B23,1] + 10000 delta[B23,B6,1] <= 9980
 PM[B23,B7,0]: - c[B7,0] + c[B23,0] + 97 delta[B23,B7,0] <= 80.5
 PM[B23,B7,1]: - c[B7,1] + c[B23,1] + 10000 delta[B23,B7,1] <= 9980
 PM[B23,B8,0]: - c[B8,0] + c[B23,0] + 97 delta[B23,B8,0] <= 83.5
 PM[B23,B8,1]: - c[B8,1] + c[B23,1] + 9997 delta[B23,B8,1] <= 9973
 PM[B23,B9,0]: - c[B9,0] + c[B23,0] + 99 delta[B23,B9,0] <= 86.5
 PM[B23,B9,1]: - c[B9,1] + c[B23,1] + 10000 delta[B23,B9,1] <= 9979.5
 PM[B23,B10,0]: - c[B10,0] + c[B23,0] + 100 delta[B23,B10,0] <= 88
 PM[B23,B10,1]: - c[B10,1] + c[B23,1] + 10000 delta[B23,B10,1] <= 9979
 PM[B23,B11,0]: - c[B11,0] + c[B23,0] + 97 delta[B23,B11,0] <= 84.5
 PM[B23,B11,1]: - c[B11,1] + c[B23,1] + 9994 delta[B23,B11,1] <= 9973
 PM[B23,B12,0]: - c[B12,0] + c[B23,0] + 100 delta[B23,B12,0] <= 83.5
 PM[B23,B12,1]: - c[B12,1] + c[B23,1] + 9999 delta[B23,B12,1] <= 9977
 PM[B23,B13,0]: - c[B13,0] + c[B23,0] + 97 delta[B23,B13,0] <= 83
 PM[B23,B13,1]: - c[B13,1] + c[B23,1] + 10000 delta[B23,B13,1] <= 9980
 PM[B23,B14,0]: - c[B14,0] + c[B23,0] + 98 delta[B23,B14,0] <= 84
 PM[B23,B14,1]: - c[B14,1] + c[B23,1] + 9997 delta[B23,B14,1] <= 9976.5
 PM[B23,B15,0]: - c[B15,0] + c[B23,0] + 100 delta[B23,B15,0] <= 85
 PM[B23,B15,1]: - c[B15,1] + c[B23,1] + 9992 delta[B23,B15,1] <= 9968
 PM[B23,B16,0]: - c[B16,0] + c[B23,0] + 100 delta[B23,B16,0] <= 86.5
 PM[B23,B16,1]: - c[B16,1] + c[B23,1] + 9995 delta[B23,B16,1] <= 9975
 PM[B23,B17,0]: - c[B17,0] + c[B23,0] + 97 delta[B23,B17,0] <= 77
 PM[B23,B17,1]: - c[B17,1] + c[B23,1] + 9992 delta[B23,B17,1] <= 9958.5
 PM[B23,B18,0]: - c[B18,0] + c[B23,0] + 97 delta[B23,B18,0] <= 79
 PM[B23,B18,1]: - c[B18,1] + c[B23,1] + 10000 delta[B23,B18,1] <= 9980.5
 PM[B23,B19,0]: - c[B19,0] + c[B23,0] + 100 delta[B23,B19,0] <= 86.5
 PM[B23,B19,1]: - c[B19,1] + c[B23,1] + 10000 delta[B23,B19,1] <= 9979
 PM[B23,B20,0]: - c[B20,0] + c[B23,0] + 100 delta[B23,B20,0] <= 85
 PM[B23,B20,1]: - c[B20,1] + c[B23,1] + 9992 delta[B23,B20,1] <= 9969
 PM[B23,B21,0]: - c[B21,0] + c[B23,0] + 100 delta[B23,B21,0] <= 82
 PM[B23,B21,1]: - c[B21,1] + c[B23,1] + 9994 delta[B23,B21,1] <= 9974
 PM[B23,B22,0]: - c[B22,0] + c[B23,0] + 100 delta[B23,B22,0] <= 88.5
 PM[B23,B22,1]: - c[B22,1] + c[B23,1] + 9992 delta[B23,B22,1] <= 9964
 PM[B23,B24,0]: c[B23,0] - c[B24,0] + 97 delta[B23,B24,0] <= 79
 PM[B23,B24,1]: c[B23,1] - c[B24,1] + 9992 delta[B23,B24,1] <= 9961.5
 PM[B23,B25,0]: c[B23,0] - c[B25,0] + 100 delta[B23,B25,0] <= 85
 PM[B23,B25,1]: c[B23,1] - c[B25,1] + 10000 delta[B23,B25,1] <= 9979.5
 PM[B23,B26,0]: c[B23,0] - c[B26,0] + 100 delta[B23,B26,0] <= 89.5
 PM[B23,B26,1]: c[B23,1] - c[B26,1] + 10000 delta[B23,B26,1] <= 9980.5
 PM[B23,B27,0]: c[B23,0] - c[B27,0] + 99 delta[B23,B27,0] <= 88
 PM[B23,B27,1]: c[B23,1] - c[B27,1] + 9998 delta[B23,B27,1] <= 9972.5
 PM[B23,B28,0]: c[B23,0] - c[B28,0] + 100 delta[B23,B28,0] <= 84.5
 PM[B23,B28,1]: c[B23,1] - c[B28,1] + 10000 delta[B23,B28,1] <= 9980.5
 PM[B23,B29,0]: c[B23,0] - c[B29,0] + 97 delta[B23,B29,0] <= 74
 PM[B23,B29,1]: c[B23,1] - c[B29,1] + 9993 delta[B23,B29,1] <= 9969.5
 PM[B23,B30,0]: c[B23,0] - c[B30,0] + 97 delta[B23,B30,0] <= 87
 PM[B23,B30,1]: c[B23,1] - c[B30,1] + 10000 delta[B23,B30,1] <= 9974
 PM[B23,B31,0]: c[B23,0] - c[B31,0] + 100 delta[B23,B31,0] <= 84
 PM[B23,B31,1]: c[B23,1] - c[B31,1] + 10000 delta[B23,B31,1] <= 9975.5
 PM[B23,B32,0]: c[B23,0] - c[B32,0] + 97 delta[B23,B32,0] <= 77
 PM[B23,B32,1]: c[B23,1] - c[B32,1] + 9996 delta[B23,B32,1] <= 9975.5
 PM[B23,B33,0]: c[B23,0] - c[B33,0] + 97 delta[B23,B33,0] <= 76.5
 PM[B23,B33,1]: c[B23,1] - c[B33,1] + 10000 delta[B23,B33,1] <= 9981
 PM[B23,B34,0]: c[B23,0] - c[B34,0] + 100 delta[B23,B34,0] <= 90.5
 PM[B23,B34,1]: c[B23,1] - c[B34,1] + 10000 delta[B23,B34,1] <= 9977.5
 PM[B23,B35,0]: c[B23,0] - c[B35,0] + 97 delta[B23,B35,0] <= 78
 PM[B23,B35,1]: c[B23,1] - c[B35,1] + 9992 delta[B23,B35,1] <= 9970.5
 PM[B23,B36,0]: c[B23,0] - c[B36,0] + 100 delta[B23,B36,0] <= 88
 PM[B23,B36,1]: c[B23,1] - c[B36,1] + 10000 delta[B23,B36,1] <= 9978.5
 PM[B23,B37,0]: c[B23,0] - c[B37,0] + 97 delta[B23,B37,0] <= 85
 PM[B23,B37,1]: c[B23,1] - c[B37,1] + 10000 delta[B23,B37,1] <= 9980.5
 PM[B23,B38,0]: c[B23,0] - c[B38,0] + 97 delta[B23,B38,0] <= 76.5
 PM[B23,B38,1]: c[B23,1] - c[B38,1] + 10000 delta[B23,B38,1] <= 9977.5
 PM[B23,B39,0]: c[B23,0] - c[B39,0] + 97 delta[B23,B39,0] <= 74
 PM[B23,B39,1]: c[B23,1] - c[B39,1] + 10000 delta[B23,B39,1] <= 9973.5
 PM[B23,B40,0]: c[B23,0] - c[B40,0] + 97 delta[B23,B40,0] <= 79
 PM[B23,B40,1]: c[B23,1] - c[B40,1] + 10000 delta[B23,B40,1] <= 9981
 PM[B23,B41,0]: c[B23,0] - c[B41,0] + 100 delta[B23,B41,0] <= 88.5
 PM[B23,B41,1]: c[B23,1] - c[B41,1] + 10000 delta[B23,B41,1] <= 9979
 PM[B23,B42,0]: c[B23,0] - c[B42,0] + 100 delta[B23,B42,0] <= 85.5
 PM[B23,B42,1]: c[B23,1] - c[B42,1] + 9992 delta[B23,B42,1] <= 9964.5
 PM[B23,B43,0]: c[B23,0] - c[B43,0] + 97 delta[B23,B43,0] <= 80
 PM[B23,B43,1]: c[B23,1] - c[B43,1] + 9994 delta[B23,B43,1] <= 9973.5
 PM[B23,B44,0]: c[B23,0] - c[B44,0] + 100 delta[B23,B44,0] <= 85
 PM[B23,B44,1]: c[B23,1] - c[B44,1] + 9995 delta[B23,B44,1] <= 9974
 PM[B23,B45,0]: c[B23,0] - c[B45,0] + 100 delta[B23,B45,0] <= 88
 PM[B23,B45,1]: c[B23,1] - c[B45,1] + 9992 delta[B23,B45,1] <= 9967
 PM[B23,B46,0]: c[B23,0] - c[B46,0] + 97 delta[B23,B46,0] <= 80.5
 PM[B23,B46,1]: c[B23,1] - c[B46,1] + 10000 delta[B23,B46,1] <= 9980.5
 PM[B23,B47,0]: c[B23,0] - c[B47,0] + 100 delta[B23,B47,0] <= 87
 PM[B23,B47,1]: c[B23,1] - c[B47,1] + 10000 delta[B23,B47,1] <= 9978.5
 PM[B23,B48,0]: c[B23,0] - c[B48,0] + 100 delta[B23,B48,0] <= 85.5
 PM[B23,B48,1]: c[B23,1] - c[B48,1] + 10000 delta[B23,B48,1] <= 9979.5
 PM[B23,B49,0]: c[B23,0] - c[B49,0] + 100 delta[B23,B49,0] <= 87
 PM[B23,B49,1]: c[B23,1] - c[B49,1] + 9996 delta[B23,B49,1] <= 9976.5
 PM[B24,B0,0]: - c[B0,0] + c[B24,0] + 100 delta[B24,B0,0] <= 90.5
 PM[B24,B0,1]: - c[B0,1] + c[B24,1] + 10000 delta[B24,B0,1] <= 9980
 PM[B24,B1,0]: - c[B1,0] + c[B24,0] + 100 delta[B24,B1,0] <= 73
 PM[B24,B1,1]: - c[B1,1] + c[B24,1] + 10000 delta[B24,B1,1] <= 9985
 PM[B24,B2,0]: - c[B2,0] + c[B24,0] + 100 delta[B24,B2,0] <= 92
 PM[B24,B2,1]: - c[B2,1] + c[B24,1] + 10000 delta[B24,B2,1] <= 9986
 PM[B24,B3,0]: - c[B3,0] + c[B24,0] + 100 delta[B24,B3,0] <= 77
 PM[B24,B3,1]: - c[B3,1] + c[B24,1] + 10000 delta[B24,B3,1] <= 9981
 PM[B24,B4,0]: - c[B4,0] + c[B24,0] + 100 delta[B24,B4,0] <= 92
 PM[B24,B4,1]: - c[B4,1] + c[B24,1] + 10000 delta[B24,B4,1] <= 9985
 PM[B24,B5,0]: - c[B5,0] + c[B24,0] + 100 delta[B24,B5,0] <= 92
 PM[B24,B5,1]: - c[B5,1] + c[B24,1] + 10000 delta[B24,B5,1] <= 9988.5
 PM[B24,B6,0]: - c[B6,0] + c[B24,0] + 100 delta[B24,B6,0] <= 87.5
 PM[B24,B6,1]: - c[B6,1] + c[B24,1] + 10000 delta[B24,B6,1] <= 9987.5
 PM[B24,B7,0]: - c[B7,0] + c[B24,0] + 100 delta[B24,B7,0] <= 82.5
 PM[B24,B7,1]: - c[B7,1] + c[B24,1] + 10000 delta[B24,B7,1] <= 9987.5
 PM[B24,B8,0]: - c[B8,0] + c[B24,0] + 100 delta[B24,B8,0] <= 85.5
 PM[B24,B8,1]: - c[B8,1] + c[B24,1] + 10000 delta[B24,B8,1] <= 9980.5
 PM[B24,B9,0]: - c[B9,0] + c[B24,0] + 100 delta[B24,B9,0] <= 88.5
 PM[B24,B9,1]: - c[B9,1] + c[B24,1] + 10000 delta[B24,B9,1] <= 9987
 PM[B24,B10,0]: - c[B10,0] + c[B24,0] + 100 delta[B24,B10,0] <= 90
 PM[B24,B10,1]: - c[B10,1] + c[B24,1] + 10000 delta[B24,B10,1] <= 9986.5
 PM[B24,B11,0]: - c[B11,0] + c[B24,0] + 100 delta[B24,B11,0] <= 86.5
 PM[B24,B11,1]: - c[B11,1] + c[B24,1] + 10000 delta[B24,B11,1] <= 9980.5
 PM[B24,B12,0]: - c[B12,0] + c[B24,0] + 100 delta[B24,B12,0] <= 85.5
 PM[B24,B12,1]: - c[B12,1] + c[B24,1] + 10000 delta[B24,B12,1] <= 9984.5
 PM[B24,B13,0]: - c[B13,0] + c[B24,0] + 100 delta[B24,B13,0] <= 85
 PM[B24,B13,1]: - c[B13,1] + c[B24,1] + 10000 delta[B24,B13,1] <= 9987.5
 PM[B24,B14,0]: - c[B14,0] + c[B24,0] + 100 delta[B24,B14,0] <= 86
 PM[B24,B14,1]: - c[B14,1] + c[B24,1] + 10000 delta[B24,B14,1] <= 9984
 PM[B24,B15,0]: - c[B15,0] + c[B24,0] + 100 delta[B24,B15,0] <= 87
 PM[B24,B15,1]: - c[B15,1] + c[B24,1] + 10000 delta[B24,B15,1] <= 9975.5
 PM[B24,B16,0]: - c[B16,0] + c[B24,0] + 100 delta[B24,B16,0] <= 88.5
 PM[B24,B16,1]: - c[B16,1] + c[B24,1] + 10000 delta[B24,B16,1] <= 9982.5
 PM[B24,B17,0]: - c[B17,0] + c[B24,0] + 100 delta[B24,B17,0] <= 79
 PM[B24,B17,1]: - c[B17,1] + c[B24,1] + 10000 delta[B24,B17,1] <= 9966
 PM[B24,B18,0]: - c[B18,0] + c[B24,0] + 100 delta[B24,B18,0] <= 81
 PM[B24,B18,1]: - c[B18,1] + c[B24,1] + 10000 delta[B24,B18,1] <= 9988
 PM[B24,B19,0]: - c[B19,0] + c[B24,0] + 100 delta[B24,B19,0] <= 88.5
 PM[B24,B19,1]: - c[B19,1] + c[B24,1] + 10000 delta[B24,B19,1] <= 9986.5
 PM[B24,B20,0]: - c[B20,0] + c[B24,0] + 100 delta[B24,B20,0] <= 87
 PM[B24,B20,1]: - c[B20,1] + c[B24,1] + 10000 delta[B24,B20,1] <= 9976.5
 PM[B24,B21,0]: - c[B21,0] + c[B24,0] + 100 delta[B24,B21,0] <= 84
 PM[B24,B21,1]: - c[B21,1] + c[B24,1] + 10000 delta[B24,B21,1] <= 9981.5
 PM[B24,B22,0]: - c[B22,0] + c[B24,0] + 100 delta[B24,B22,0] <= 90.5
 PM[B24,B22,1]: - c[B22,1] + c[B24,1] + 10000 delta[B24,B22,1] <= 9971.5
 PM[B24,B23,0]: - c[B23,0] + c[B24,0] + 100 delta[B24,B23,0] <= 91
 PM[B24,B23,1]: - c[B23,1] + c[B24,1] + 10000 delta[B24,B23,1] <= 9983.5
 PM[B24,B25,0]: c[B24,0] - c[B25,0] + 100 delta[B24,B25,0] <= 87
 PM[B24,B25,1]: c[B24,1] - c[B25,1] + 10000 delta[B24,B25,1] <= 9987
 PM[B24,B26,0]: c[B24,0] - c[B26,0] + 100 delta[B24,B26,0] <= 91.5
 PM[B24,B26,1]: c[B24,1] - c[B26,1] + 10000 delta[B24,B26,1] <= 9988
 PM[B24,B27,0]: c[B24,0] - c[B27,0] + 100 delta[B24,B27,0] <= 90
 PM[B24,B27,1]: c[B24,1] - c[B27,1] + 10000 delta[B24,B27,1] <= 9980
 PM[B24,B28,0]: c[B24,0] - c[B28,0] + 100 delta[B24,B28,0] <= 86.5
 PM[B24,B28,1]: c[B24,1] - c[B28,1] + 10000 delta[B24,B28,1] <= 9988
 PM[B24,B29,0]: c[B24,0] - c[B29,0] + 100 delta[B24,B29,0] <= 76
 PM[B24,B29,1]: c[B24,1] - c[B29,1] + 10000 delta[B24,B29,1] <= 9977
 PM[B24,B30,0]: c[B24,0] - c[B30,0] + 100 delta[B24,B30,0] <= 89
 PM[B24,B30,1]: c[B24,1] - c[B30,1] + 10000 delta[B24,B30,1] <= 9981.5
 PM[B24,B31,0]: c[B24,0] - c[B31,0] + 100 delta[B24,B31,0] <= 86
 PM[B24,B31,1]: c[B24,1] - c[B31,1] + 10000 delta[B24,B31,1] <= 9983
 PM[B24,B32,0]: c[B24,0] - c[B32,0] + 100 delta[B24,B32,0] <= 79
 PM[B24,B32,1]: c[B24,1] - c[B32,1] + 10000 delta[B24,B32,1] <= 9983
 PM[B24,B33,0]: c[B24,0] - c[B33,0] + 100 delta[B24,B33,0] <= 78.5
 PM[B24,B33,1]: c[B24,1] - c[B33,1] + 10000 delta[B24,B33,1] <= 9988.5
 PM[B24,B34,0]: c[B24,0] - c[B34,0] + 100 delta[B24,B34,0] <= 92.5
 PM[B24,B34,1]: c[B24,1] - c[B34,1] + 10000 delta[B24,B34,1] <= 9985
 PM[B24,B35,0]: c[B24,0] - c[B35,0] + 100 delta[B24,B35,0] <= 80
 PM[B24,B35,1]: c[B24,1] - c[B35,1] + 10000 delta[B24,B35,1] <= 9978
 PM[B24,B36,0]: c[B24,0] - c[B36,0] + 100 delta[B24,B36,0] <= 90
 PM[B24,B36,1]: c[B24,1] - c[B36,1] + 10000 delta[B24,B36,1] <= 9986
 PM[B24,B37,0]: c[B24,0] - c[B37,0] + 100 delta[B24,B37,0] <= 87
 PM[B24,B37,1]: c[B24,1] - c[B37,1] + 10000 delta[B24,B37,1] <= 9988
 PM[B24,B38,0]: c[B24,0] - c[B38,0] + 100 delta[B24,B38,0] <= 78.5
 PM[B24,B38,1]: c[B24,1] - c[B38,1] + 10000 delta[B24,B38,1] <= 9985
 PM[B24,B39,0]: c[B24,0] - c[B39,0] + 100 delta[B24,B39,0] <= 76
 PM[B24,B39,1]: c[B24,1] - c[B39,1] + 10000 delta[B24,B39,1] <= 9981
 PM[B24,B40,0]: c[B24,0] - c[B40,0] + 100 delta[B24,B40,0] <= 81
 PM[B24,B40,1]: c[B24,1] - c[B40,1] + 10000 delta[B24,B40,1] <= 9988.5
 PM[B24,B41,0]: c[B24,0] - c[B41,0] + 100 delta[B24,B41,0] <= 90.5
 PM[B24,B41,1]: c[B24,1] - c[B41,1] + 10000 delta[B24,B41,1] <= 9986.5
 PM[B24,B42,0]: c[B24,0] - c[B42,0] + 100 delta[B24,B42,0] <= 87.5
 PM[B24,B42,1]: c[B24,1] - c[B42,1] + 10000 delta[B24,B42,1] <= 9972
 PM[B24,B43,0]: c[B24,0] - c[B43,0] + 100 delta[B24,B43,0] <= 82
 PM[B24,B43,1]: c[B24,1] - c[B43,1] + 10000 delta[B24,B43,1] <= 9981
 PM[B24,B44,0]: c[B24,0] - c[B44,0] + 100 delta[B24,B44,0] <= 87
 PM[B24,B44,1]: c[B24,1] - c[B44,1] + 10000 delta[B24,B44,1] <= 9981.5
 PM[B24,B45,0]: c[B24,0] - c[B45,0] + 100 delta[B24,B45,0] <= 90
 PM[B24,B45,1]: c[B24,1] - c[B45,1] + 10000 delta[B24,B45,1] <= 9974.5
 PM[B24,B46,0]: c[B24,0] - c[B46,0] + 100 delta[B24,B46,0] <= 82.5
 PM[B24,B46,1]: c[B24,1] - c[B46,1] + 10000 delta[B24,B46,1] <= 9988
 PM[B24,B47,0]: c[B24,0] - c[B47,0] + 100 delta[B24,B47,0] <= 89
 PM[B24,B47,1]: c[B24,1] - c[B47,1] + 10000 delta[B24,B47,1] <= 9986
 PM[B24,B48,0]: c[B24,0] - c[B48,0] + 100 delta[B24,B48,0] <= 87.5
 PM[B24,B48,1]: c[B24,1] - c[B48,1] + 10000 delta[B24,B48,1] <= 9987
 PM[B24,B49,0]: c[B24,0] - c[B49,0] + 100 delta[B24,B49,0] <= 89
 PM[B24,B49,1]: c[B24,1] - c[B49,1] + 10000 delta[B24,B49,1] <= 9984
 PM[B25,B0,0]: - c[B0,0] + c[B25,0] + 100 delta[B25,B0,0] <= 84.5
 PM[B25,B0,1]: - c[B0,1] + c[B25,1] + 9994 delta[B25,B0,1] <= 9975
 PM[B25,B1,0]: - c[B1,0] + c[B25,0] + 97 delta[B25,B1,0] <= 67
 PM[B25,B1,1]: - c[B1,1] + c[B25,1] + 10000 delta[B25,B1,1] <= 9980
 PM[B25,B2,0]: - c[B2,0] + c[B25,0] + 100 delta[B25,B2,0] <= 86
 PM[B25,B2,1]: - c[B2,1] + c[B25,1] + 10000 delta[B25,B2,1] <= 9981
 PM[B25,B3,0]: - c[B3,0] + c[B25,0] + 97 delta[B25,B3,0] <= 71
 PM[B25,B3,1]: - c[B3,1] + c[B25,1] + 9996 delta[B25,B3,1] <= 9976
 PM[B25,B4,0]: - c[B4,0] + c[B25,0] + 100 delta[B25,B4,0] <= 86
 PM[B25,B4,1]: - c[B4,1] + c[B25,1] + 10000 delta[B25,B4,1] <= 9980
 PM[B25,B5,0]: - c[B5,0] + c[B25,0] + 100 delta[B25,B5,0] <= 86
 PM[B25,B5,1]: - c[B5,1] + c[B25,1] + 10000 delta[B25,B5,1] <= 9983.5
 PM[B25,B6,0]: - c[B6,0] + c[B25,0] + 100 delta[B25,B6,0] <= 81.5
 PM[B25,B6,1]: - c[B6,1] + c[B25,1] + 10000 delta[B25,B6,1] <= 9982.5
 PM[B25,B7,0]: - c[B7,0] + c[B25,0] + 97 delta[B25,B7,0] <= 76.5
 PM[B25,B7,1]: - c[B7,1] + c[B25,1] + 10000 delta[B25,B7,1] <= 9982.5
 PM[B25,B8,0]: - c[B8,0] + c[B25,0] + 97 delta[B25,B8,0] <= 79.5
 PM[B25,B8,1]: - c[B8,1] + c[B25,1] + 9997 delta[B25,B8,1] <= 9975.5
 PM[B25,B9,0]: - c[B9,0] + c[B25,0] + 99 delta[B25,B9,0] <= 82.5
 PM[B25,B9,1]: - c[B9,1] + c[B25,1] + 10000 delta[B25,B9,1] <= 9982
 PM[B25,B10,0]: - c[B10,0] + c[B25,0] + 100 delta[B25,B10,0] <= 84
 PM[B25,B10,1]: - c[B10,1] + c[B25,1] + 10000 delta[B25,B10,1] <= 9981.5
 PM[B25,B11,0]: - c[B11,0] + c[B25,0] + 97 delta[B25,B11,0] <= 80.5
 PM[B25,B11,1]: - c[B11,1] + c[B25,1] + 9994 delta[B25,B11,1] <= 9975.5
 PM[B25,B12,0]: - c[B12,0] + c[B25,0] + 100 delta[B25,B12,0] <= 79.5
 PM[B25,B12,1]: - c[B12,1] + c[B25,1] + 9999 delta[B25,B12,1] <= 9979.5
 PM[B25,B13,0]: - c[B13,0] + c[B25,0] + 97 delta[B25,B13,0] <= 79
 PM[B25,B13,1]: - c[B13,1] + c[B25,1] + 10000 delta[B25,B13,1] <= 9982.5
 PM[B25,B14,0]: - c[B14,0] + c[B25,0] + 98 delta[B25,B14,0] <= 80
 PM[B25,B14,1]: - c[B14,1] + c[B25,1] + 9997 delta[B25,B14,1] <= 9979
 PM[B25,B15,0]: - c[B15,0] + c[B25,0] + 100 delta[B25,B15,0] <= 81
 PM[B25,B15,1]: - c[B15,1] + c[B25,1] + 9991 delta[B25,B15,1] <= 9970.5
 PM[B25,B16,0]: - c[B16,0] + c[B25,0] + 100 delta[B25,B16,0] <= 82.5
 PM[B25,B16,1]: - c[B16,1] + c[B25,1] + 9995 delta[B25,B16,1] <= 9977.5
 PM[B25,B17,0]: - c[B17,0] + c[B25,0] + 97 delta[B25,B17,0] <= 73
 PM[B25,B17,1]: - c[B17,1] + c[B25,1] + 9991 delta[B25,B17,1] <= 9961
 PM[B25,B18,0]: - c[B18,0] + c[B25,0] + 97 delta[B25,B18,0] <= 75
 PM[B25,B18,1]: - c[B18,1] + c[B25,1] + 10000 delta[B25,B18,1] <= 9983
 PM[B25,B19,0]: - c[B19,0] + c[B25,0] + 100 delta[B25,B19,0] <= 82.5
 PM[B25,B19,1]: - c[B19,1] + c[B25,1] + 10000 delta[B25,B19,1] <= 9981.5
 PM[B25,B20,0]: - c[B20,0] + c[B25,0] + 100 delta[B25,B20,0] <= 81
 PM[B25,B20,1]: - c[B20,1] + c[B25,1] + 9991 delta[B25,B20,1] <= 9971.5
 PM[B25,B21,0]: - c[B21,0] + c[B25,0] + 100 delta[B25,B21,0] <= 78
 PM[B25,B21,1]: - c[B21,1] + c[B25,1] + 9994 delta[B25,B21,1] <= 9976.5
 PM[B25,B22,0]: - c[B22,0] + c[B25,0] + 100 delta[B25,B22,0] <= 84.5
 PM[B25,B22,1]: - c[B22,1] + c[B25,1] + 9991 delta[B25,B22,1] <= 9966.5
 PM[B25,B23,0]: - c[B23,0] + c[B25,0] + 100 delta[B25,B23,0] <= 85
 PM[B25,B23,1]: - c[B23,1] + c[B25,1] + 10000 delta[B25,B23,1] <= 9978.5
 PM[B25,B24,0]: - c[B24,0] + c[B25,0] + 97 delta[B25,B24,0] <= 75
 PM[B25,B24,1]: - c[B24,1] + c[B25,1] + 9991 delta[B25,B24,1] <= 9964
 PM[B25,B26,0]: c[B25,0] - c[B26,0] + 100 delta[B25,B26,0] <= 85.5
 PM[B25,B26,1]: c[B25,1] - c[B26,1] + 10000 delta[B25,B26,1] <= 9983
 PM[B25,B27,0]: c[B25,0] - c[B27,0] + 99 delta[B25,B27,0] <= 84
 PM[B25,B27,1]: c[B25,1] - c[B27,1] + 9998 delta[B25,B27,1] <= 9975
 PM[B25,B28,0]: c[B25,0] - c[B28,0] + 100 delta[B25,B28,0] <= 80.5
 PM[B25,B28,1]: c[B25,1] - c[B28,1] + 10000 delta[B25,B28,1] <= 9983
 PM[B25,B29,0]: c[B25,0] - c[B29,0] + 97 delta[B25,B29,0] <= 70
 PM[B25,B29,1]: c[B25,1] - c[B29,1] + 9993 delta[B25,B29,1] <= 9972
 PM[B25,B30,0]: c[B25,0] - c[B30,0] + 97 delta[B25,B30,0] <= 83
 PM[B25,B30,1]: c[B25,1] - c[B30,1] + 10000 delta[B25,B30,1] <= 9976.5
 PM[B25,B31,0]: c[B25,0] - c[B31,0] + 100 delta[B25,B31,0] <= 80
 PM[B25,B31,1]: c[B25,1] - c[B31,1] + 10000 delta[B25,B31,1] <= 9978
 PM[B25,B32,0]: c[B25,0] - c[B32,0] + 97 delta[B25,B32,0] <= 73
 PM[B25,B32,1]: c[B25,1] - c[B32,1] + 9996 delta[B25,B32,1] <= 9978
 PM[B25,B33,0]: c[B25,0] - c[B33,0] + 97 delta[B25,B33,0] <= 72.5
 PM[B25,B33,1]: c[B25,1] - c[B33,1] + 10000 delta[B25,B33,1] <= 9983.5
 PM[B25,B34,0]: c[B25,0] - c[B34,0] + 100 delta[B25,B34,0] <= 86.5
 PM[B25,B34,1]: c[B25,1] - c[B34,1] + 10000 delta[B25,B34,1] <= 9980
 PM[B25,B35,0]: c[B25,0] - c[B35,0] + 97 delta[B25,B35,0] <= 74
 PM[B25,B35,1]: c[B25,1] - c[B35,1] + 9991 delta[B25,B35,1] <= 9973
 PM[B25,B36,0]: c[B25,0] - c[B36,0] + 100 delta[B25,B36,0] <= 84
 PM[B25,B36,1]: c[B25,1] - c[B36,1] + 10000 delta[B25,B36,1] <= 9981
 PM[B25,B37,0]: c[B25,0] - c[B37,0] + 97 delta[B25,B37,0] <= 81
 PM[B25,B37,1]: c[B25,1] - c[B37,1] + 10000 delta[B25,B37,1] <= 9983
 PM[B25,B38,0]: c[B25,0] - c[B38,0] + 97 delta[B25,B38,0] <= 72.5
 PM[B25,B38,1]: c[B25,1] - c[B38,1] + 10000 delta[B25,B38,1] <= 9980
 PM[B25,B39,0]: c[B25,0] - c[B39,0] + 97 delta[B25,B39,0] <= 70
 PM[B25,B39,1]: c[B25,1] - c[B39,1] + 10000 delta[B25,B39,1] <= 9976
 PM[B25,B40,0]: c[B25,0] - c[B40,0] + 97 delta[B25,B40,0] <= 75
 PM[B25,B40,1]: c[B25,1] - c[B40,1] + 10000 delta[B25,B40,1] <= 9983.5
 PM[B25,B41,0]: c[B25,0] - c[B41,0] + 100 delta[B25,B41,0] <= 84.5
 PM[B25,B41,1]: c[B25,1] - c[B41,1] + 10000 delta[B25,B41,1] <= 9981.5
 PM[B25,B42,0]: c[B25,0] - c[B42,0] + 100 delta[B25,B42,0] <= 81.5
 PM[B25,B42,1]: c[B25,1] - c[B42,1] + 9991 delta[B25,B42,1] <= 9967
 PM[B25,B43,0]: c[B25,0] - c[B43,0] + 97 delta[B25,B43,0] <= 76
 PM[B25,B43,1]: c[B25,1] - c[B43,1] + 9994 delta[B25,B43,1] <= 9976
 PM[B25,B44,0]: c[B25,0] - c[B44,0] + 100 delta[B25,B44,0] <= 81
 PM[B25,B44,1]: c[B25,1] - c[B44,1] + 9995 delta[B25,B44,1] <= 9976.5
 PM[B25,B45,0]: c[B25,0] - c[B45,0] + 100 delta[B25,B45,0] <= 84
 PM[B25,B45,1]: c[B25,1] - c[B45,1] + 9991 delta[B25,B45,1] <= 9969.5
 PM[B25,B46,0]: c[B25,0] - c[B46,0] + 97 delta[B25,B46,0] <= 76.5
 PM[B25,B46,1]: c[B25,1] - c[B46,1] + 10000 delta[B25,B46,1] <= 9983
 PM[B25,B47,0]: c[B25,0] - c[B47,0] + 100 delta[B25,B47,0] <= 83
 PM[B25,B47,1]: c[B25,1] - c[B47,1] + 10000 delta[B25,B47,1] <= 9981
 PM[B25,B48,0]: c[B25,0] - c[B48,0] + 100 delta[B25,B48,0] <= 81.5
 PM[B25,B48,1]: c[B25,1] - c[B48,1] + 10000 delta[B25,B48,1] <= 9982
 PM[B25,B49,0]: c[B25,0] - c[B49,0] + 100 delta[B25,B49,0] <= 83
 PM[B25,B49,1]: c[B25,1] - c[B49,1] + 9996 delta[B25,B49,1] <= 9979
 PM[B26,B0,0]: - c[B0,0] + c[B26,0] + 100 delta[B26,B0,0] <= 92
 PM[B26,B0,1]: - c[B0,1] + c[B26,1] + 10000 delta[B26,B0,1] <= 9985
 PM[B26,B1,0]: - c[B1,0] + c[B26,0] + 100 delta[B26,B1,0] <= 74.5
 PM[B26,B1,1]: - c[B1,1] + c[B26,1] + 10000 delta[B26,B1,1] <= 9990
 PM[B26,B2,0]: - c[B2,0] + c[B26,0] + 100 delta[B26,B2,0] <= 93.5
 PM[B26,B2,1]: - c[B2,1] + c[B26,1] + 10000 delta[B26,B2,1] <= 9991
 PM[B26,B3,0]: - c[B3,0] + c[B26,0] + 100 delta[B26,B3,0] <= 78.5
 PM[B26,B3,1]: - c[B3,1] + c[B26,1] + 10000 delta[B26,B3,1] <= 9986
 PM[B26,B4,0]: - c[B4,0] + c[B26,0] + 100 delta[B26,B4,0] <= 93.5
 PM[B26,B4,1]: - c[B4,1] + c[B26,1] + 10000 delta[B26,B4,1] <= 9990
 PM[B26,B5,0]: - c[B5,0] + c[B26,0] + 100 delta[B26,B5,0] <= 93.5
 PM[B26,B5,1]: - c[B5,1] + c[B26,1] + 10000 delta[B26,B5,1] <= 9993.5
 PM[B26,B6,0]: - c[B6,0] + c[B26,0] + 100 delta[B26,B6,0] <= 89
 PM[B26,B6,1]: - c[B6,1] + c[B26,1] + 10000 delta[B26,B6,1] <= 9992.5
 PM[B26,B7,0]: - c[B7,0] + c[B26,0] + 100 delta[B26,B7,0] <= 84
 PM[B26,B7,1]: - c[B7,1] + c[B26,1] + 10000 delta[B26,B7,1] <= 9992.5
 PM[B26,B8,0]: - c[B8,0] + c[B26,0] + 100 delta[B26,B8,0] <= 87
 PM[B26,B8,1]: - c[B8,1] + c[B26,1] + 10000 delta[B26,B8,1] <= 9985.5
 PM[B26,B9,0]: - c[B9,0] + c[B26,0] + 100 delta[B26,B9,0] <= 90
 PM[B26,B9,1]: - c[B9,1] + c[B26,1] + 10000 delta[B26,B9,1] <= 9992
 PM[B26,B10,0]: - c[B10,0] + c[B26,0] + 100 delta[B26,B10,0] <= 91.5
 PM[B26,B10,1]: - c[B10,1] + c[B26,1] + 10000 delta[B26,B10,1] <= 9991.5
 PM[B26,B11,0]: - c[B11,0] + c[B26,0] + 100 delta[B26,B11,0] <= 88
 PM[B26,B11,1]: - c[B11,1] + c[B26,1] + 10000 delta[B26,B11,1] <= 9985.5
 PM[B26,B12,0]: - c[B12,0] + c[B26,0] + 100 delta[B26,B12,0] <= 87
 PM[B26,B12,1]: - c[B12,1] + c[B26,1] + 10000 delta[B26,B12,1] <= 9989.5
 PM[B26,B13,0]: - c[B13,0] + c[B26,0] + 100 delta[B26,B13,0] <= 86.5
 PM[B26,B13,1]: - c[B13,1] + c[B26,1] + 10000 delta[B26,B13,1] <= 9992.5
 PM[B26,B14,0]: - c[B14,0] + c[B26,0] + 100 delta[B26,B14,0] <= 87.5
 PM[B26,B14,1]: - c[B14,1] + c[B26,1] + 10000 delta[B26,B14,1] <= 9989
 PM[B26,B15,0]: - c[B15,0] + c[B26,0] + 100 delta[B26,B15,0] <= 88.5
 PM[B26,B15,1]: - c[B15,1] + c[B26,1] + 10000 delta[B26,B15,1] <= 9980.5
 PM[B26,B16,0]: - c[B16,0] + c[B26,0] + 100 delta[B26,B16,0] <= 90
 PM[B26,B16,1]: - c[B16,1] + c[B26,1] + 10000 delta[B26,B16,1] <= 9987.5
 PM[B26,B17,0]: - c[B17,0] + c[B26,0] + 100 delta[B26,B17,0] <= 80.5
 PM[B26,B17,1]: - c[B17,1] + c[B26,1] + 10000 delta[B26,B17,1] <= 9971
 PM[B26,B18,0]: - c[B18,0] + c[B26,0] + 100 delta[B26,B18,0] <= 82.5
 PM[B26,B18,1]: - c[B18,1] + c[B26,1] + 10000 delta[B26,B18,1] <= 9993
 PM[B26,B19,0]: - c[B19,0] + c[B26,0] + 100 delta[B26,B19,0] <= 90
 PM[B26,B19,1]: - c[B19,1] + c[B26,1] + 10000 delta[B26,B19,1] <= 9991.5
 PM[B26,B20,0]: - c[B20,0] + c[B26,0] + 100 delta[B26,B20,0] <= 88.5
 PM[B26,B20,1]: - c[B20,1] + c[B26,1] + 10000 delta[B26,B20,1] <= 9981.5
 PM[B26,B21,0]: - c[B21,0] + c[B26,0] + 100 delta[B26,B21,0] <= 85.5
 PM[B26,B21,1]: - c[B21,1] + c[B26,1] + 10000 delta[B26,B21,1] <= 9986.5
 PM[B26,B22,0]: - c[B22,0] + c[B26,0] + 100 delta[B26,B22,0] <= 92
 PM[B26,B22,1]: - c[B22,1] + c[B26,1] + 10000 delta[B26,B22,1] <= 9976.5
 PM[B26,B23,0]: - c[B23,0] + c[B26,0] + 100 delta[B26,B23,0] <= 92.5
 PM[B26,B23,1]: - c[B23,1] + c[B26,1] + 10000 delta[B26,B23,1] <= 9988.5
 PM[B26,B24,0]: - c[B24,0] + c[B26,0] + 100 delta[B26,B24,0] <= 82.5
 PM[B26,B24,1]: - c[B24,1] + c[B26,1] + 10000 delta[B26,B24,1] <= 9974
 PM[B26,B25,0]: - c[B25,0] + c[B26,0] + 100 delta[B26,B25,0] <= 88.5
 PM[B26,B25,1]: - c[B25,1] + c[B26,1] + 10000 delta[B26,B25,1] <= 9992
 PM[B26,B27,0]: c[B26,0] - c[B27,0] + 100 delta[B26,B27,0] <= 91.5
 PM[B26,B27,1]: c[B26,1] - c[B27,1] + 10000 delta[B26,B27,1] <= 9985
 PM[B26,B28,0]: c[B26,0] - c[B28,0] + 100 delta[B26,B28,0] <= 88
 PM[B26,B28,1]: c[B26,1] - c[B28,1] + 10000 delta[B26,B28,1] <= 9993
 PM[B26,B29,0]: c[B26,0] - c[B29,0] + 100 delta[B26,B29,0] <= 77.5
 PM[B26,B29,1]: c[B26,1] - c[B29,1] + 10000 delta[B26,B29,1] <= 9982
 PM[B26,B30,0]: c[B26,0] - c[B30,0] + 100 delta[B26,B30,0] <= 90.5
 PM[B26,B30,1]: c[B26,1] - c[B30,1] + 10000 delta[B26,B30,1] <= 9986.5
 PM[B26,B31,0]: c[B26,0] - c[B31,0] + 100 delta[B26,B31,0] <= 87.5
 PM[B26,B31,1]: c[B26,1] - c[B31,1] + 10000 delta[B26,B31,1] <= 9988
 PM[B26,B32,0]: c[B26,0] - c[B32,0] + 100 delta[B26,B32,0] <= 80.5
 PM[B26,B32,1]: c[B26,1] - c[B32,1] + 10000 delta[B26,B32,1] <= 9988
 PM[B26,B33,0]: c[B26,0] - c[B33,0] + 100 delta[B26,B33,0] <= 80
 PM[B26,B33,1]: c[B26,1] - c[B33,1] + 10000 delta[B26,B33,1] <= 9993.5
 PM[B26,B34,0]: c[B26,0] - c[B34,0] + 100 delta[B26,B34,0] <= 94
 PM[B26,B34,1]: c[B26,1] - c[B34,1] + 10000 delta[B26,B34,1] <= 9990
 PM[B26,B35,0]: c[B26,0] - c[B35,0] + 100 delta[B26,B35,0] <= 81.5
 PM[B26,B35,1]: c[B26,1] - c[B35,1] + 10000 delta[B26,B35,1] <= 9983
 PM[B26,B36,0]: c[B26,0] - c[B36,0] + 100 delta[B26,B36,0] <= 91.5
 PM[B26,B36,1]: c[B26,1] - c[B36,1] + 10000 delta[B26,B36,1] <= 9991
 PM[B26,B37,0]: c[B26,0] - c[B37,0] + 100 delta[B26,B37,0] <= 88.5
 PM[B26,B37,1]: c[B26,1] - c[B37,1] + 10000 delta[B26,B37,1] <= 9993
 PM[B26,B38,0]: c[B26,0] - c[B38,0] + 100 delta[B26,B38,0] <= 80
 PM[B26,B38,1]: c[B26,1] - c[B38,1] + 10000 delta[B26,B38,1] <= 9990
 PM[B26,B39,0]: c[B26,0] - c[B39,0] + 100 delta[B26,B39,0] <= 77.5
 PM[B26,B39,1]: c[B26,1] - c[B39,1] + 10000 delta[B26,B39,1] <= 9986
 PM[B26,B40,0]: c[B26,0] - c[B40,0] + 100 delta[B26,B40,0] <= 82.5
 PM[B26,B40,1]: c[B26,1] - c[B40,1] + 10000 delta[B26,B40,1] <= 9993.5
 PM[B26,B41,0]: c[B26,0] - c[B41,0] + 100 delta[B26,B41,0] <= 92
 PM[B26,B41,1]: c[B26,1] - c[B41,1] + 10000 delta[B26,B41,1] <= 9991.5
 PM[B26,B42,0]: c[B26,0] - c[B42,0] + 100 delta[B26,B42,0] <= 89
 PM[B26,B42,1]: c[B26,1] - c[B42,1] + 10000 delta[B26,B42,1] <= 9977
 PM[B26,B43,0]: c[B26,0] - c[B43,0] + 100 delta[B26,B43,0] <= 83.5
 PM[B26,B43,1]: c[B26,1] - c[B43,1] + 10000 delta[B26,B43,1] <= 9986
 PM[B26,B44,0]: c[B26,0] - c[B44,0] + 100 delta[B26,B44,0] <= 88.5
 PM[B26,B44,1]: c[B26,1] - c[B44,1] + 10000 delta[B26,B44,1] <= 9986.5
 PM[B26,B45,0]: c[B26,0] - c[B45,0] + 100 delta[B26,B45,0] <= 91.5
 PM[B26,B45,1]: c[B26,1] - c[B45,1] + 10000 delta[B26,B45,1] <= 9979.5
 PM[B26,B46,0]: c[B26,0] - c[B46,0] + 100 delta[B26,B46,0] <= 84
 PM[B26,B46,1]: c[B26,1] - c[B46,1] + 10000 delta[B26,B46,1] <= 9993
 PM[B26,B47,0]: c[B26,0] - c[B47,0] + 100 delta[B26,B47,0] <= 90.5
 PM[B26,B47,1]: c[B26,1] - c[B47,1] + 10000 delta[B26,B47,1] <= 9991
 PM[B26,B48,0]: c[B26,0] - c[B48,0] + 100 delta[B26,B48,0] <= 89
 PM[B26,B48,1]: c[B26,1] - c[B48,1] + 10000 delta[B26,B48,1] <= 9992
 PM[B26,B49,0]: c[B26,0] - c[B49,0] + 100 delta[B26,B49,0] <= 90.5
 PM[B26,B49,1]: c[B26,1] - c[B49,1] + 10000 delta[B26,B49,1] <= 9989
 PM[B27,B0,0]: - c[B0,0] + c[B27,0] + 100 delta[B27,B0,0] <= 84.5
 PM[B27,B0,1]: - c[B0,1] + c[B27,1] + 10000 delta[B27,B0,1] <= 9979
 PM[B27,B1,0]: - c[B1,0] + c[B27,0] + 93 delta[B27,B1,0] <= 67
 PM[B27,B1,1]: - c[B1,1] + c[B27,1] + 10000 delta[B27,B1,1] <= 9984
 PM[B27,B2,0]: - c[B2,0] + c[B27,0] + 100 delta[B27,B2,0] <= 86
 PM[B27,B2,1]: - c[B2,1] + c[B27,1] + 10000 delta[B27,B2,1] <= 9985
 PM[B27,B3,0]: - c[B3,0] + c[B27,0] + 93 delta[B27,B3,0] <= 71
 PM[B27,B3,1]: - c[B3,1] + c[B27,1] + 10000 delta[B27,B3,1] <= 9980
 PM[B27,B4,0]: - c[B4,0] + c[B27,0] + 100 delta[B27,B4,0] <= 86
 PM[B27,B4,1]: - c[B4,1] + c[B27,1] + 10000 delta[B27,B4,1] <= 9984
 PM[B27,B5,0]: - c[B5,0] + c[B27,0] + 100 delta[B27,B5,0] <= 86
 PM[B27,B5,1]: - c[B5,1] + c[B27,1] + 10000 delta[B27,B5,1] <= 9987.5
 PM[B27,B6,0]: - c[B6,0] + c[B27,0] + 100 delta[B27,B6,0] <= 81.5
 PM[B27,B6,1]: - c[B6,1] + c[B27,1] + 10000 delta[B27,B6,1] <= 9986.5
 PM[B27,B7,0]: - c[B7,0] + c[B27,0] + 95 delta[B27,B7,0] <= 76.5
 PM[B27,B7,1]: - c[B7,1] + c[B27,1] + 10000 delta[B27,B7,1] <= 9986.5
 PM[B27,B8,0]: - c[B8,0] + c[B27,0] + 94 delta[B27,B8,0] <= 79.5
 PM[B27,B8,1]: - c[B8,1] + c[B27,1] + 10000 delta[B27,B8,1] <= 9979.5
 PM[B27,B9,0]: - c[B9,0] + c[B27,0] + 99 delta[B27,B9,0] <= 82.5
 PM[B27,B9,1]: - c[B9,1] + c[B27,1] + 10000 delta[B27,B9,1] <= 9986
 PM[B27,B10,0]: - c[B10,0] + c[B27,0] + 100 delta[B27,B10,0] <= 84
 PM[B27,B10,1]: - c[B10,1] + c[B27,1] + 10000 delta[B27,B10,1] <= 9985.5
 PM[B27,B11,0]: - c[B11,0] + c[B27,0] + 96 delta[B27,B11,0] <= 80.5
 PM[B27,B11,1]: - c[B11,1] + c[B27,1] + 10000 delta[B27,B11,1] <= 9979.5
 PM[B27,B12,0]: - c[B12,0] + c[B27,0] + 100 delta[B27,B12,0] <= 79.5
 PM[B27,B12,1]: - c[B12,1] + c[B27,1] + 10000 delta[B27,B12,1] <= 9983.5
 PM[B27,B13,0]: - c[B13,0] + c[B27,0] + 97 delta[B27,B13,0] <= 79
 PM[B27,B13,1]: - c[B13,1] + c[B27,1] + 10000 delta[B27,B13,1] <= 9986.5
 PM[B27,B14,0]: - c[B14,0] + c[B27,0] + 98 delta[B27,B14,0] <= 80
 PM[B27,B14,1]: - c[B14,1] + c[B27,1] + 10000 delta[B27,B14,1] <= 9983
 PM[B27,B15,0]: - c[B15,0] + c[B27,0] + 100 delta[B27,B15,0] <= 81
 PM[B27,B15,1]: - c[B15,1] + c[B27,1] + 10000 delta[B27,B15,1] <= 9974.5
 PM[B27,B16,0]: - c[B16,0] + c[B27,0] + 100 delta[B27,B16,0] <= 82.5
 PM[B27,B16,1]: - c[B16,1] + c[B27,1] + 10000 delta[B27,B16,1] <= 9981.5
 PM[B27,B17,0]: - c[B17,0] + c[B27,0] + 93 delta[B27,B17,0] <= 73
 PM[B27,B17,1]: - c[B17,1] + c[B27,1] + 10000 delta[B27,B17,1] <= 9965
 PM[B27,B18,0]: - c[B18,0] + c[B27,0] + 96 delta[B27,B18,0] <= 75
 PM[B27,B18,1]: - c[B18,1] + c[B27,1] + 10000 delta[B27,B18,1] <= 9987
 PM[B27,B19,0]: - c[B19,0] + c[B27,0] + 100 delta[B27,B19,0] <= 82.5
 PM[B27,B19,1]: - c[B19,1] + c[B27,1] + 10000 delta[B27,B19,1] <= 9985.5
 PM[B27,B20,0]: - c[B20,0] + c[B27,0] + 100 delta[B27,B20,0] <= 81
 PM[B27,B20,1]: - c[B20,1] + c[B27,1] + 10000 delta[B27,B20,1] <= 9975.5
 PM[B27,B21,0]: - c[B21,0] + c[B27,0] + 100 delta[B27,B21,0] <= 78
 PM[B27,B21,1]: - c[B21,1] + c[B27,1] + 10000 delta[B27,B21,1] <= 9980.5
 PM[B27,B22,0]: - c[B22,0] + c[B27,0] + 100 delta[B27,B22,0] <= 84.5
 PM[B27,B22,1]: - c[B22,1] + c[B27,1] + 10000 delta[B27,B22,1] <= 9970.5
 PM[B27,B23,0]: - c[B23,0] + c[B27,0] + 100 delta[B27,B23,0] <= 85
 PM[B27,B23,1]: - c[B23,1] + c[B27,1] + 10000 delta[B27,B23,1] <= 9982.5
 PM[B27,B24,0]: - c[B24,0] + c[B27,0] + 93 delta[B27,B24,0] <= 75
 PM[B27,B24,1]: - c[B24,1] + c[B27,1] + 10000 delta[B27,B24,1] <= 9968
 PM[B27,B25,0]: - c[B25,0] + c[B27,0] + 100 delta[B27,B25,0] <= 81
 PM[B27,B25,1]: - c[B25,1] + c[B27,1] + 10000 delta[B27,B25,1] <= 9986
 PM[B27,B26,0]: - c[B26,0] + c[B27,0] + 100 delta[B27,B26,0] <= 85.5
 PM[B27,B26,1]: - c[B26,1] + c[B27,1] + 10000 delta[B27,B26,1] <= 9987
 PM[B27,B28,0]: c[B27,0] - c[B28,0] + 100 delta[B27,B28,0] <= 80.5
 PM[B27,B28,1]: c[B27,1] - c[B28,1] + 10000 delta[B27,B28,1] <= 9987
 PM[B27,B29,0]: c[B27,0] - c[B29,0] + 93 delta[B27,B29,0] <= 70
 PM[B27,B29,1]: c[B27,1] - c[B29,1] + 10000 delta[B27,B29,1] <= 9976
 PM[B27,B30,0]: c[B27,0] - c[B30,0] + 97 delta[B27,B30,0] <= 83
 PM[B27,B30,1]: c[B27,1] - c[B30,1] + 10000 delta[B27,B30,1] <= 9980.5
 PM[B27,B31,0]: c[B27,0] - c[B31,0] + 100 delta[B27,B31,0] <= 80
 PM[B27,B31,1]: c[B27,1] - c[B31,1] + 10000 delta[B27,B31,1] <= 9982
 PM[B27,B32,0]: c[B27,0] - c[B32,0] + 93 delta[B27,B32,0] <= 73
 PM[B27,B32,1]: c[B27,1] - c[B32,1] + 10000 delta[B27,B32,1] <= 9982
 PM[B27,B33,0]: c[B27,0] - c[B33,0] + 93 delta[B27,B33,0] <= 72.5
 PM[B27,B33,1]: c[B27,1] - c[B33,1] + 10000 delta[B27,B33,1] <= 9987.5
 PM[B27,B34,0]: c[B27,0] - c[B34,0] + 100 delta[B27,B34,0] <= 86.5
 PM[B27,B34,1]: c[B27,1] - c[B34,1] + 10000 delta[B27,B34,1] <= 9984
 PM[B27,B35,0]: c[B27,0] - c[B35,0] + 93 delta[B27,B35,0] <= 74
 PM[B27,B35,1]: c[B27,1] - c[B35,1] + 10000 delta[B27,B35,1] <= 9977
 PM[B27,B36,0]: c[B27,0] - c[B36,0] + 100 delta[B27,B36,0] <= 84
 PM[B27,B36,1]: c[B27,1] - c[B36,1] + 10000 delta[B27,B36,1] <= 9985
 PM[B27,B37,0]: c[B27,0] - c[B37,0] + 95 delta[B27,B37,0] <= 81
 PM[B27,B37,1]: c[B27,1] - c[B37,1] + 10000 delta[B27,B37,1] <= 9987
 PM[B27,B38,0]: c[B27,0] - c[B38,0] + 93 delta[B27,B38,0] <= 72.5
 PM[B27,B38,1]: c[B27,1] - c[B38,1] + 10000 delta[B27,B38,1] <= 9984
 PM[B27,B39,0]: c[B27,0] - c[B39,0] + 93 delta[B27,B39,0] <= 70
 PM[B27,B39,1]: c[B27,1] - c[B39,1] + 10000 delta[B27,B39,1] <= 9980
 PM[B27,B40,0]: c[B27,0] - c[B40,0] + 93 delta[B27,B40,0] <= 75
 PM[B27,B40,1]: c[B27,1] - c[B40,1] + 10000 delta[B27,B40,1] <= 9987.5
 PM[B27,B41,0]: c[B27,0] - c[B41,0] + 100 delta[B27,B41,0] <= 84.5
 PM[B27,B41,1]: c[B27,1] - c[B41,1] + 10000 delta[B27,B41,1] <= 9985.5
 PM[B27,B42,0]: c[B27,0] - c[B42,0] + 100 delta[B27,B42,0] <= 81.5
 PM[B27,B42,1]: c[B27,1] - c[B42,1] + 10000 delta[B27,B42,1] <= 9971
 PM[B27,B43,0]: c[B27,0] - c[B43,0] + 95 delta[B27,B43,0] <= 76
 PM[B27,B43,1]: c[B27,1] - c[B43,1] + 10000 delta[B27,B43,1] <= 9980
 PM[B27,B44,0]: c[B27,0] - c[B44,0] + 100 delta[B27,B44,0] <= 81
 PM[B27,B44,1]: c[B27,1] - c[B44,1] + 10000 delta[B27,B44,1] <= 9980.5
 PM[B27,B45,0]: c[B27,0] - c[B45,0] + 100 delta[B27,B45,0] <= 84
 PM[B27,B45,1]: c[B27,1] - c[B45,1] + 10000 delta[B27,B45,1] <= 9973.5
 PM[B27,B46,0]: c[B27,0] - c[B46,0] + 93 delta[B27,B46,0] <= 76.5
 PM[B27,B46,1]: c[B27,1] - c[B46,1] + 10000 delta[B27,B46,1] <= 9987
 PM[B27,B47,0]: c[B27,0] - c[B47,0] + 100 delta[B27,B47,0] <= 83
 PM[B27,B47,1]: c[B27,1] - c[B47,1] + 10000 delta[B27,B47,1] <= 9985
 PM[B27,B48,0]: c[B27,0] - c[B48,0] + 100 delta[B27,B48,0] <= 81.5
 PM[B27,B48,1]: c[B27,1] - c[B48,1] + 10000 delta[B27,B48,1] <= 9986
 PM[B27,B49,0]: c[B27,0] - c[B49,0] + 100 delta[B27,B49,0] <= 83
 PM[B27,B49,1]: c[B27,1] - c[B49,1] + 10000 delta[B27,B49,1] <= 9983
 PM[B28,B0,0]: - c[B0,0] + c[B28,0] + 100 delta[B28,B0,0] <= 70
 PM[B28,B0,1]: - c[B0,1] + c[B28,1] + 9997 delta[B28,B0,1] <= 9982
 PM[B28,B1,0]: - c[B1,0] + c[B28,0] + 86 delta[B28,B1,0] <= 52.5
 PM[B28,B1,1]: - c[B1,1] + c[B28,1] + 10000 delta[B28,B1,1] <= 9987
 PM[B28,B2,0]: - c[B2,0] + c[B28,0] + 100 delta[B28,B2,0] <= 71.5
 PM[B28,B2,1]: - c[B2,1] + c[B28,1] + 10000 delta[B28,B2,1] <= 9988
 PM[B28,B3,0]: - c[B3,0] + c[B28,0] + 90 delta[B28,B3,0] <= 56.5
 PM[B28,B3,1]: - c[B3,1] + c[B28,1] + 9997 delta[B28,B3,1] <= 9983
 PM[B28,B4,0]: - c[B4,0] + c[B28,0] + 100 delta[B28,B4,0] <= 71.5
 PM[B28,B4,1]: - c[B4,1] + c[B28,1] + 10000 delta[B28,B4,1] <= 9987
 PM[B28,B5,0]: - c[B5,0] + c[B28,0] + 100 delta[B28,B5,0] <= 71.5
 PM[B28,B5,1]: - c[B5,1] + c[B28,1] + 10000 delta[B28,B5,1] <= 9990.5
 PM[B28,B6,0]: - c[B6,0] + c[B28,0] + 100 delta[B28,B6,0] <= 67
 PM[B28,B6,1]: - c[B6,1] + c[B28,1] + 10000 delta[B28,B6,1] <= 9989.5
 PM[B28,B7,0]: - c[B7,0] + c[B28,0] + 95 delta[B28,B7,0] <= 62
 PM[B28,B7,1]: - c[B7,1] + c[B28,1] + 10000 delta[B28,B7,1] <= 9989.5
 PM[B28,B8,0]: - c[B8,0] + c[B28,0] + 94 delta[B28,B8,0] <= 65
 PM[B28,B8,1]: - c[B8,1] + c[B28,1] + 9997 delta[B28,B8,1] <= 9982.5
 PM[B28,B9,0]: - c[B9,0] + c[B28,0] + 99 delta[B28,B9,0] <= 68
 PM[B28,B9,1]: - c[B9,1] + c[B28,1] + 10000 delta[B28,B9,1] <= 9989
 PM[B28,B10,0]: - c[B10,0] + c[B28,0] + 100 delta[B28,B10,0] <= 69.5
 PM[B28,B10,1]: - c[B10,1] + c[B28,1] + 10000 delta[B28,B10,1] <= 9988.5
 PM[B28,B11,0]: - c[B11,0] + c[B28,0] + 96 delta[B28,B11,0] <= 66
 PM[B28,B11,1]: - c[B11,1] + c[B28,1] + 9997 delta[B28,B11,1] <= 9982.5
 PM[B28,B12,0]: - c[B12,0] + c[B28,0] + 100 delta[B28,B12,0] <= 65
 PM[B28,B12,1]: - c[B12,1] + c[B28,1] + 9999 delta[B28,B12,1] <= 9986.5
 PM[B28,B13,0]: - c[B13,0] + c[B28,0] + 97 delta[B28,B13,0] <= 64.5
 PM[B28,B13,1]: - c[B13,1] + c[B28,1] + 10000 delta[B28,B13,1] <= 9989.5
 PM[B28,B14,0]: - c[B14,0] + c[B28,0] + 98 delta[B28,B14,0] <= 65.5
 PM[B28,B14,1]: - c[B14,1] + c[B28,1] + 9997 delta[B28,B14,1] <= 9986
 PM[B28,B15,0]: - c[B15,0] + c[B28,0] + 100 delta[B28,B15,0] <= 66.5
 PM[B28,B15,1]: - c[B15,1] + c[B28,1] + 9997 delta[B28,B15,1] <= 9977.5
 PM[B28,B16,0]: - c[B16,0] + c[B28,0] + 100 delta[B28,B16,0] <= 68
 PM[B28,B16,1]: - c[B16,1] + c[B28,1] + 9997 delta[B28,B16,1] <= 9984.5
 PM[B28,B17,0]: - c[B17,0] + c[B28,0] + 91 delta[B28,B17,0] <= 58.5
 PM[B28,B17,1]: - c[B17,1] + c[B28,1] + 9997 delta[B28,B17,1] <= 9968
 PM[B28,B18,0]: - c[B18,0] + c[B28,0] + 96 delta[B28,B18,0] <= 60.5
 PM[B28,B18,1]: - c[B18,1] + c[B28,1] + 10000 delta[B28,B18,1] <= 9990
 PM[B28,B19,0]: - c[B19,0] + c[B28,0] + 100 delta[B28,B19,0] <= 68
 PM[B28,B19,1]: - c[B19,1] + c[B28,1] + 10000 delta[B28,B19,1] <= 9988.5
 PM[B28,B20,0]: - c[B20,0] + c[B28,0] + 100 delta[B28,B20,0] <= 66.5
 PM[B28,B20,1]: - c[B20,1] + c[B28,1] + 9997 delta[B28,B20,1] <= 9978.5
 PM[B28,B21,0]: - c[B21,0] + c[B28,0] + 100 delta[B28,B21,0] <= 63.5
 PM[B28,B21,1]: - c[B21,1] + c[B28,1] + 9997 delta[B28,B21,1] <= 9983.5
 PM[B28,B22,0]: - c[B22,0] + c[B28,0] + 100 delta[B28,B22,0] <= 70
 PM[B28,B22,1]: - c[B22,1] + c[B28,1] + 9997 delta[B28,B22,1] <= 9973.5
 PM[B28,B23,0]: - c[B23,0] + c[B28,0] + 100 delta[B28,B23,0] <= 70.5
 PM[B28,B23,1]: - c[B23,1] + c[B28,1] + 10000 delta[B28,B23,1] <= 9985.5
 PM[B28,B24,0]: - c[B24,0] + c[B28,0] + 91 delta[B28,B24,0] <= 60.5
 PM[B28,B24,1]: - c[B24,1] + c[B28,1] + 9997 delta[B28,B24,1] <= 9971
 PM[B28,B25,0]: - c[B25,0] + c[B28,0] + 100 delta[B28,B25,0] <= 66.5
 PM[B28,B25,1]: - c[B25,1] + c[B28,1] + 10000 delta[B28,B25,1] <= 9989
 PM[B28,B26,0]: - c[B26,0] + c[B28,0] + 100 delta[B28,B26,0] <= 71
 PM[B28,B26,1]: - c[B26,1] + c[B28,1] + 10000 delta[B28,B26,1] <= 9990
 PM[B28,B27,0]: - c[B27,0] + c[B28,0] + 99 delta[B28,B27,0] <= 69.5
 PM[B28,B27,1]: - c[B27,1] + c[B28,1] + 9998 delta[B28,B27,1] <= 9982
 PM[B28,B29,0]: c[B28,0] - c[B29,0] + 89 delta[B28,B29,0] <= 55.5
 PM[B28,B29,1]: c[B28,1] - c[B29,1] + 9997 delta[B28,B29,1] <= 9979
 PM[B28,B30,0]: c[B28,0] - c[B30,0] + 97 delta[B28,B30,0] <= 68.5
 PM[B28,B30,1]: c[B28,1] - c[B30,1] + 10000 delta[B28,B30,1] <= 9983.5
 PM[B28,B31,0]: c[B28,0] - c[B31,0] + 100 delta[B28,B31,0] <= 65.5
 PM[B28,B31,1]: c[B28,1] - c[B31,1] + 10000 delta[B28,B31,1] <= 9985
 PM[B28,B32,0]: c[B28,0] - c[B32,0] + 90 delta[B28,B32,0] <= 58.5
 PM[B28,B32,1]: c[B28,1] - c[B32,1] + 9997 delta[B28,B32,1] <= 9985
 PM[B28,B33,0]: c[B28,0] - c[B33,0] + 91 delta[B28,B33,0] <= 58
 PM[B28,B33,1]: c[B28,1] - c[B33,1] + 10000 delta[B28,B33,1] <= 9990.5
 PM[B28,B34,0]: c[B28,0] - c[B34,0] + 100 delta[B28,B34,0] <= 72
 PM[B28,B34,1]: c[B28,1] - c[B34,1] + 10000 delta[B28,B34,1] <= 9987
 PM[B28,B35,0]: c[B28,0] - c[B35,0] + 91 delta[B28,B35,0] <= 59.5
 PM[B28,B35,1]: c[B28,1] - c[B35,1] + 9997 delta[B28,B35,1] <= 9980
 PM[B28,B36,0]: c[B28,0] - c[B36,0] + 100 delta[B28,B36,0] <= 69.5
 PM[B28,B36,1]: c[B28,1] - c[B36,1] + 10000 delta[B28,B36,1] <= 9988
 PM[B28,B37,0]: c[B28,0] - c[B37,0] + 95 delta[B28,B37,0] <= 66.5
 PM[B28,B37,1]: c[B28,1] - c[B37,1] + 10000 delta[B28,B37,1] <= 9990
 PM[B28,B38,0]: c[B28,0] - c[B38,0] + 92 delta[B28,B38,0] <= 58
 PM[B28,B38,1]: c[B28,1] - c[B38,1] + 10000 delta[B28,B38,1] <= 9987
 PM[B28,B39,0]: c[B28,0] - c[B39,0] + 90 delta[B28,B39,0] <= 55.5
 PM[B28,B39,1]: c[B28,1] - c[B39,1] + 10000 delta[B28,B39,1] <= 9983
 PM[B28,B40,0]: c[B28,0] - c[B40,0] + 91 delta[B28,B40,0] <= 60.5
 PM[B28,B40,1]: c[B28,1] - c[B40,1] + 10000 delta[B28,B40,1] <= 9990.5
 PM[B28,B41,0]: c[B28,0] - c[B41,0] + 100 delta[B28,B41,0] <= 70
 PM[B28,B41,1]: c[B28,1] - c[B41,1] + 10000 delta[B28,B41,1] <= 9988.5
 PM[B28,B42,0]: c[B28,0] - c[B42,0] + 100 delta[B28,B42,0] <= 67
 PM[B28,B42,1]: c[B28,1] - c[B42,1] + 9997 delta[B28,B42,1] <= 9974
 PM[B28,B43,0]: c[B28,0] - c[B43,0] + 95 delta[B28,B43,0] <= 61.5
 PM[B28,B43,1]: c[B28,1] - c[B43,1] + 9997 delta[B28,B43,1] <= 9983
 PM[B28,B44,0]: c[B28,0] - c[B44,0] + 100 delta[B28,B44,0] <= 66.5
 PM[B28,B44,1]: c[B28,1] - c[B44,1] + 9997 delta[B28,B44,1] <= 9983.5
 PM[B28,B45,0]: c[B28,0] - c[B45,0] + 100 delta[B28,B45,0] <= 69.5
 PM[B28,B45,1]: c[B28,1] - c[B45,1] + 9997 delta[B28,B45,1] <= 9976.5
 PM[B28,B46,0]: c[B28,0] - c[B46,0] + 92 delta[B28,B46,0] <= 62
 PM[B28,B46,1]: c[B28,1] - c[B46,1] + 10000 delta[B28,B46,1] <= 9990
 PM[B28,B47,0]: c[B28,0] - c[B47,0] + 100 delta[B28,B47,0] <= 68.5
 PM[B28,B47,1]: c[B28,1] - c[B47,1] + 10000 delta[B28,B47,1] <= 9988
 PM[B28,B48,0]: c[B28,0] - c[B48,0] + 100 delta[B28,B48,0] <= 67
 PM[B28,B48,1]: c[B28,1] - c[B48,1] + 10000 delta[B28,B48,1] <= 9989
 PM[B28,B49,0]: c[B28,0] - c[B49,0] + 100 delta[B28,B49,0] <= 68.5
 PM[B28,B49,1]: c[B28,1] - c[B49,1] + 9997 delta[B28,B49,1] <= 9986
 PM[B29,B0,0]: - c[B0,0] + c[B29,0] + 100 delta[B29,B0,0] <= 74.5
 PM[B29,B0,1]: - c[B0,1] + c[B29,1] + 9997 delta[B29,B0,1] <= 9978
 PM[B29,B1,0]: - c[B1,0] + c[B29,0] + 87 delta[B29,B1,0] <= 57
 PM[B29,B1,1]: - c[B1,1] + c[B29,1] + 10000 delta[B29,B1,1] <= 9983
 PM[B29,B2,0]: - c[B2,0] + c[B29,0] + 100 delta[B29,B2,0] <= 76
 PM[B29,B2,1]: - c[B2,1] + c[B29,1] + 10000 delta[B29,B2,1] <= 9984
 PM[B29,B3,0]: - c[B3,0] + c[B29,0] + 90 delta[B29,B3,0] <= 61
 PM[B29,B3,1]: - c[B3,1] + c[B29,1] + 9997 delta[B29,B3,1] <= 9979
 PM[B29,B4,0]: - c[B4,0] + c[B29,0] + 100 delta[B29,B4,0] <= 76
 PM[B29,B4,1]: - c[B4,1] + c[B29,1] + 10000 delta[B29,B4,1] <= 9983
 PM[B29,B5,0]: - c[B5,0] + c[B29,0] + 100 delta[B29,B5,0] <= 76
 PM[B29,B5,1]: - c[B5,1] + c[B29,1] + 10000 delta[B29,B5,1] <= 9986.5
 PM[B29,B6,0]: - c[B6,0] + c[B29,0] + 100 delta[B29,B6,0] <= 71.5
 PM[B29,B6,1]: - c[B6,1] + c[B29,1] + 10000 delta[B29,B6,1] <= 9985.5
 PM[B29,B7,0]: - c[B7,0] + c[B29,0] + 95 delta[B29,B7,0] <= 66.5
 PM[B29,B7,1]: - c[B7,1] + c[B29,1] + 10000 delta[B29,B7,1] <= 9985.5
 PM[B29,B8,0]: - c[B8,0] + c[B29,0] + 94 delta[B29,B8,0] <= 69.5
 PM[B29,B8,1]: - c[B8,1] + c[B29,1] + 9997 delta[B29,B8,1] <= 9978.5
 PM[B29,B9,0]: - c[B9,0] + c[B29,0] + 99 delta[B29,B9,0] <= 72.5
 PM[B29,B9,1]: - c[B9,1] + c[B29,1] + 10000 delta[B29,B9,1] <= 9985
 PM[B29,B10,0]: - c[B10,0] + c[B29,0] + 100 delta[B29,B10,0] <= 74
 PM[B29,B10,1]: - c[B10,1] + c[B29,1] + 10000 delta[B29,B10,1] <= 9984.5
 PM[B29,B11,0]: - c[B11,0] + c[B29,0] + 96 delta[B29,B11,0] <= 70.5
 PM[B29,B11,1]: - c[B11,1] + c[B29,1] + 9997 delta[B29,B11,1] <= 9978.5
 PM[B29,B12,0]: - c[B12,0] + c[B29,0] + 100 delta[B29,B12,0] <= 69.5
 PM[B29,B12,1]: - c[B12,1] + c[B29,1] + 9999 delta[B29,B12,1] <= 9982.5
 PM[B29,B13,0]: - c[B13,0] + c[B29,0] + 97 delta[B29,B13,0] <= 69
 PM[B29,B13,1]: - c[B13,1] + c[B29,1] + 10000 delta[B29,B13,1] <= 9985.5
 PM[B29,B14,0]: - c[B14,0] + c[B29,0] + 98 delta[B29,B14,0] <= 70
 PM[B29,B14,1]: - c[B14,1] + c[B29,1] + 9997 delta[B29,B14,1] <= 9982
 PM[B29,B15,0]: - c[B15,0] + c[B29,0] + 100 delta[B29,B15,0] <= 71
 PM[B29,B15,1]: - c[B15,1] + c[B29,1] + 9997 delta[B29,B15,1] <= 9973.5
 PM[B29,B16,0]: - c[B16,0] + c[B29,0] + 100 delta[B29,B16,0] <= 72.5
 PM[B29,B16,1]: - c[B16,1] + c[B29,1] + 9997 delta[B29,B16,1] <= 9980.5
 PM[B29,B17,0]: - c[B17,0] + c[B29,0] + 91 delta[B29,B17,0] <= 63
 PM[B29,B17,1]: - c[B17,1] + c[B29,1] + 9997 delta[B29,B17,1] <= 9964
 PM[B29,B18,0]: - c[B18,0] + c[B29,0] + 96 delta[B29,B18,0] <= 65
 PM[B29,B18,1]: - c[B18,1] + c[B29,1] + 10000 delta[B29,B18,1] <= 9986
 PM[B29,B19,0]: - c[B19,0] + c[B29,0] + 100 delta[B29,B19,0] <= 72.5
 PM[B29,B19,1]: - c[B19,1] + c[B29,1] + 10000 delta[B29,B19,1] <= 9984.5
 PM[B29,B20,0]: - c[B20,0] + c[B29,0] + 100 delta[B29,B20,0] <= 71
 PM[B29,B20,1]: - c[B20,1] + c[B29,1] + 9997 delta[B29,B20,1] <= 9974.5
 PM[B29,B21,0]: - c[B21,0] + c[B29,0] + 100 delta[B29,B21,0] <= 68
 PM[B29,B21,1]: - c[B21,1] + c[B29,1] + 9997 delta[B29,B21,1] <= 9979.5
 PM[B29,B22,0]: - c[B22,0] + c[B29,0] + 100 delta[B29,B22,0] <= 74.5
 PM[B29,B22,1]: - c[B22,1] + c[B29,1] + 9997 delta[B29,B22,1] <= 9969.5
 PM[B29,B23,0]: - c[B23,0] + c[B29,0] + 100 delta[B29,B23,0] <= 75
 PM[B29,B23,1]: - c[B23,1] + c[B29,1] + 10000 delta[B29,B23,1] <= 9981.5
 PM[B29,B24,0]: - c[B24,0] + c[B29,0] + 91 delta[B29,B24,0] <= 65
 PM[B29,B24,1]: - c[B24,1] + c[B29,1] + 9997 delta[B29,B24,1] <= 9967
 PM[B29,B25,0]: - c[B25,0] + c[B29,0] + 100 delta[B29,B25,0] <= 71
 PM[B29,B25,1]: - c[B25,1] + c[B29,1] + 10000 delta[B29,B25,1] <= 9985
 PM[B29,B26,0]: - c[B26,0] + c[B29,0] + 100 delta[B29,B26,0] <= 75.5
 PM[B29,B26,1]: - c[B26,1] + c[B29,1] + 10000 delta[B29,B26,1] <= 9986
 PM[B29,B27,0]: - c[B27,0] + c[B29,0] + 99 delta[B29,B27,0] <= 74
 PM[B29,B27,1]: - c[B27,1] + c[B29,1] + 9998 delta[B29,B27,1] <= 9978
 PM[B29,B28,0]: - c[B28,0] + c[B29,0] + 100 delta[B29,B28,0] <= 70.5
 PM[B29,B28,1]: - c[B28,1] + c[B29,1] + 10000 delta[B29,B28,1] <= 9986
 PM[B29,B30,0]: c[B29,0] - c[B30,0] + 97 delta[B29,B30,0] <= 73
 PM[B29,B30,1]: c[B29,1] - c[B30,1] + 10000 delta[B29,B30,1] <= 9979.5
 PM[B29,B31,0]: c[B29,0] - c[B31,0] + 100 delta[B29,B31,0] <= 70
 PM[B29,B31,1]: c[B29,1] - c[B31,1] + 10000 delta[B29,B31,1] <= 9981
 PM[B29,B32,0]: c[B29,0] - c[B32,0] + 90 delta[B29,B32,0] <= 63
 PM[B29,B32,1]: c[B29,1] - c[B32,1] + 9997 delta[B29,B32,1] <= 9981
 PM[B29,B33,0]: c[B29,0] - c[B33,0] + 91 delta[B29,B33,0] <= 62.5
 PM[B29,B33,1]: c[B29,1] - c[B33,1] + 10000 delta[B29,B33,1] <= 9986.5
 PM[B29,B34,0]: c[B29,0] - c[B34,0] + 100 delta[B29,B34,0] <= 76.5
 PM[B29,B34,1]: c[B29,1] - c[B34,1] + 10000 delta[B29,B34,1] <= 9983
 PM[B29,B35,0]: c[B29,0] - c[B35,0] + 91 delta[B29,B35,0] <= 64
 PM[B29,B35,1]: c[B29,1] - c[B35,1] + 9997 delta[B29,B35,1] <= 9976
 PM[B29,B36,0]: c[B29,0] - c[B36,0] + 100 delta[B29,B36,0] <= 74
 PM[B29,B36,1]: c[B29,1] - c[B36,1] + 10000 delta[B29,B36,1] <= 9984
 PM[B29,B37,0]: c[B29,0] - c[B37,0] + 95 delta[B29,B37,0] <= 71
 PM[B29,B37,1]: c[B29,1] - c[B37,1] + 10000 delta[B29,B37,1] <= 9986
 PM[B29,B38,0]: c[B29,0] - c[B38,0] + 92 delta[B29,B38,0] <= 62.5
 PM[B29,B38,1]: c[B29,1] - c[B38,1] + 10000 delta[B29,B38,1] <= 9983
 PM[B29,B39,0]: c[B29,0] - c[B39,0] + 90 delta[B29,B39,0] <= 60
 PM[B29,B39,1]: c[B29,1] - c[B39,1] + 10000 delta[B29,B39,1] <= 9979
 PM[B29,B40,0]: c[B29,0] - c[B40,0] + 91 delta[B29,B40,0] <= 65
 PM[B29,B40,1]: c[B29,1] - c[B40,1] + 10000 delta[B29,B40,1] <= 9986.5
 PM[B29,B41,0]: c[B29,0] - c[B41,0] + 100 delta[B29,B41,0] <= 74.5
 PM[B29,B41,1]: c[B29,1] - c[B41,1] + 10000 delta[B29,B41,1] <= 9984.5
 PM[B29,B42,0]: c[B29,0] - c[B42,0] + 100 delta[B29,B42,0] <= 71.5
 PM[B29,B42,1]: c[B29,1] - c[B42,1] + 9997 delta[B29,B42,1] <= 9970
 PM[B29,B43,0]: c[B29,0] - c[B43,0] + 95 delta[B29,B43,0] <= 66
 PM[B29,B43,1]: c[B29,1] - c[B43,1] + 9997 delta[B29,B43,1] <= 9979
 PM[B29,B44,0]: c[B29,0] - c[B44,0] + 100 delta[B29,B44,0] <= 71
 PM[B29,B44,1]: c[B29,1] - c[B44,1] + 9997 delta[B29,B44,1] <= 9979.5
 PM[B29,B45,0]: c[B29,0] - c[B45,0] + 100 delta[B29,B45,0] <= 74
 PM[B29,B45,1]: c[B29,1] - c[B45,1] + 9997 delta[B29,B45,1] <= 9972.5
 PM[B29,B46,0]: c[B29,0] - c[B46,0] + 92 delta[B29,B46,0] <= 66.5
 PM[B29,B46,1]: c[B29,1] - c[B46,1] + 10000 delta[B29,B46,1] <= 9986
 PM[B29,B47,0]: c[B29,0] - c[B47,0] + 100 delta[B29,B47,0] <= 73
 PM[B29,B47,1]: c[B29,1] - c[B47,1] + 10000 delta[B29,B47,1] <= 9984
 PM[B29,B48,0]: c[B29,0] - c[B48,0] + 100 delta[B29,B48,0] <= 71.5
 PM[B29,B48,1]: c[B29,1] - c[B48,1] + 10000 delta[B29,B48,1] <= 9985
 PM[B29,B49,0]: c[B29,0] - c[B49,0] + 100 delta[B29,B49,0] <= 73
 PM[B29,B49,1]: c[B29,1] - c[B49,1] + 9997 delta[B29,B49,1] <= 9982
 PM[B30,B0,0]: - c[B0,0] + c[B30,0] + 100 delta[B30,B0,0] <= 88.5
 PM[B30,B0,1]: - c[B0,1] + c[B30,1] + 10000 delta[B30,B0,1] <= 9978.5
 PM[B30,B1,0]: - c[B1,0] + c[B30,0] + 96 delta[B30,B1,0] <= 71
 PM[B30,B1,1]: - c[B1,1] + c[B30,1] + 10000 delta[B30,B1,1] <= 9983.5
 PM[B30,B2,0]: - c[B2,0] + c[B30,0] + 100 delta[B30,B2,0] <= 90
 PM[B30,B2,1]: - c[B2,1] + c[B30,1] + 10000 delta[B30,B2,1] <= 9984.5
 PM[B30,B3,0]: - c[B3,0] + c[B30,0] + 96 delta[B30,B3,0] <= 75
 PM[B30,B3,1]: - c[B3,1] + c[B30,1] + 10000 delta[B30,B3,1] <= 9979.5
 PM[B30,B4,0]: - c[B4,0] + c[B30,0] + 100 delta[B30,B4,0] <= 90
 PM[B30,B4,1]: - c[B4,1] + c[B30,1] + 10000 delta[B30,B4,1] <= 9983.5
 PM[B30,B5,0]: - c[B5,0] + c[B30,0] + 100 delta[B30,B5,0] <= 90
 PM[B30,B5,1]: - c[B5,1] + c[B30,1] + 10000 delta[B30,B5,1] <= 9987
 PM[B30,B6,0]: - c[B6,0] + c[B30,0] + 100 delta[B30,B6,0] <= 85.5
 PM[B30,B6,1]: - c[B6,1] + c[B30,1] + 10000 delta[B30,B6,1] <= 9986
 PM[B30,B7,0]: - c[B7,0] + c[B30,0] + 96 delta[B30,B7,0] <= 80.5
 PM[B30,B7,1]: - c[B7,1] + c[B30,1] + 10000 delta[B30,B7,1] <= 9986
 PM[B30,B8,0]: - c[B8,0] + c[B30,0] + 96 delta[B30,B8,0] <= 83.5
 PM[B30,B8,1]: - c[B8,1] + c[B30,1] + 10000 delta[B30,B8,1] <= 9979
 PM[B30,B9,0]: - c[B9,0] + c[B30,0] + 99 delta[B30,B9,0] <= 86.5
 PM[B30,B9,1]: - c[B9,1] + c[B30,1] + 10000 delta[B30,B9,1] <= 9985.5
 PM[B30,B10,0]: - c[B10,0] + c[B30,0] + 100 delta[B30,B10,0] <= 88
 PM[B30,B10,1]: - c[B10,1] + c[B30,1] + 10000 delta[B30,B10,1] <= 9985
 PM[B30,B11,0]: - c[B11,0] + c[B30,0] + 96 delta[B30,B11,0] <= 84.5
 PM[B30,B11,1]: - c[B11,1] + c[B30,1] + 10000 delta[B30,B11,1] <= 9979
 PM[B30,B12,0]: - c[B12,0] + c[B30,0] + 100 delta[B30,B12,0] <= 83.5
 PM[B30,B12,1]: - c[B12,1] + c[B30,1] + 10000 delta[B30,B12,1] <= 9983
 PM[B30,B13,0]: - c[B13,0] + c[B30,0] + 97 delta[B30,B13,0] <= 83
 PM[B30,B13,1]: - c[B13,1] + c[B30,1] + 10000 delta[B30,B13,1] <= 9986
 PM[B30,B14,0]: - c[B14,0] + c[B30,0] + 98 delta[B30,B14,0] <= 84
 PM[B30,B14,1]: - c[B14,1] + c[B30,1] + 10000 delta[B30,B14,1] <= 9982.5
 PM[B30,B15,0]: - c[B15,0] + c[B30,0] + 100 delta[B30,B15,0] <= 85
 PM[B30,B15,1]: - c[B15,1] + c[B30,1] + 10000 delta[B30,B15,1] <= 9974
 PM[B30,B16,0]: - c[B16,0] + c[B30,0] + 100 delta[B30,B16,0] <= 86.5
 PM[B30,B16,1]: - c[B16,1] + c[B30,1] + 10000 delta[B30,B16,1] <= 9981
 PM[B30,B17,0]: - c[B17,0] + c[B30,0] + 96 delta[B30,B17,0] <= 77
 PM[B30,B17,1]: - c[B17,1] + c[B30,1] + 10000 delta[B30,B17,1] <= 9964.5
 PM[B30,B18,0]: - c[B18,0] + c[B30,0] + 96 delta[B30,B18,0] <= 79
 PM[B30,B18,1]: - c[B18,1] + c[B30,1] + 10000 delta[B30,B18,1] <= 9986.5
 PM[B30,B19,0]: - c[B19,0] + c[B30,0] + 100 delta[B30,B19,0] <= 86.5
 PM[B30,B19,1]: - c[B19,1] + c[B30,1] + 10000 delta[B30,B19,1] <= 9985
 PM[B30,B20,0]: - c[B20,0] + c[B30,0] + 100 delta[B30,B20,0] <= 85
 PM[B30,B20,1]: - c[B20,1] + c[B30,1] + 10000 delta[B30,B20,1] <= 9975
 PM[B30,B21,0]: - c[B21,0] + c[B30,0] + 100 delta[B30,B21,0] <= 82
 PM[B30,B21,1]: - c[B21,1] + c[B30,1] + 10000 delta[B30,B21,1] <= 9980
 PM[B30,B22,0]: - c[B22,0] + c[B30,0] + 100 delta[B30,B22,0] <= 88.5
 PM[B30,B22,1]: - c[B22,1] + c[B30,1] + 10000 delta[B30,B22,1] <= 9970
 PM[B30,B23,0]: - c[B23,0] + c[B30,0] + 100 delta[B30,B23,0] <= 89
 PM[B30,B23,1]: - c[B23,1] + c[B30,1] + 10000 delta[B30,B23,1] <= 9982
 PM[B30,B24,0]: - c[B24,0] + c[B30,0] + 96 delta[B30,B24,0] <= 79
 PM[B30,B24,1]: - c[B24,1] + c[B30,1] + 10000 delta[B30,B24,1] <= 9967.5
 PM[B30,B25,0]: - c[B25,0] + c[B30,0] + 100 delta[B30,B25,0] <= 85
 PM[B30,B25,1]: - c[B25,1] + c[B30,1] + 10000 delta[B30,B25,1] <= 9985.5
 PM[B30,B26,0]: - c[B26,0] + c[B30,0] + 100 delta[B30,B26,0] <= 89.5
 PM[B30,B26,1]: - c[B26,1] + c[B30,1] + 10000 delta[B30,B26,1] <= 9986.5
 PM[B30,B27,0]: - c[B27,0] + c[B30,0] + 99 delta[B30,B27,0] <= 88
 PM[B30,B27,1]: - c[B27,1] + c[B30,1] + 10000 delta[B30,B27,1] <= 9978.5
 PM[B30,B28,0]: - c[B28,0] + c[B30,0] + 100 delta[B30,B28,0] <= 84.5
 PM[B30,B28,1]: - c[B28,1] + c[B30,1] + 10000 delta[B30,B28,1] <= 9986.5
 PM[B30,B29,0]: - c[B29,0] + c[B30,0] + 96 delta[B30,B29,0] <= 74
 PM[B30,B29,1]: - c[B29,1] + c[B30,1] + 10000 delta[B30,B29,1] <= 9975.5
 PM[B30,B31,0]: c[B30,0] - c[B31,0] + 100 delta[B30,B31,0] <= 84
 PM[B30,B31,1]: c[B30,1] - c[B31,1] + 10000 delta[B30,B31,1] <= 9981.5
 PM[B30,B32,0]: c[B30,0] - c[B32,0] + 96 delta[B30,B32,0] <= 77
 PM[B30,B32,1]: c[B30,1] - c[B32,1] + 10000 delta[B30,B32,1] <= 9981.5
 PM[B30,B33,0]: c[B30,0] - c[B33,0] + 96 delta[B30,B33,0] <= 76.5
 PM[B30,B33,1]: c[B30,1] - c[B33,1] + 10000 delta[B30,B33,1] <= 9987
 PM[B30,B34,0]: c[B30,0] - c[B34,0] + 100 delta[B30,B34,0] <= 90.5
 PM[B30,B34,1]: c[B30,1] - c[B34,1] + 10000 delta[B30,B34,1] <= 9983.5
 PM[B30,B35,0]: c[B30,0] - c[B35,0] + 96 delta[B30,B35,0] <= 78
 PM[B30,B35,1]: c[B30,1] - c[B35,1] + 10000 delta[B30,B35,1] <= 9976.5
 PM[B30,B36,0]: c[B30,0] - c[B36,0] + 100 delta[B30,B36,0] <= 88
 PM[B30,B36,1]: c[B30,1] - c[B36,1] + 10000 delta[B30,B36,1] <= 9984.5
 PM[B30,B37,0]: c[B30,0] - c[B37,0] + 96 delta[B30,B37,0] <= 85
 PM[B30,B37,1]: c[B30,1] - c[B37,1] + 10000 delta[B30,B37,1] <= 9986.5
 PM[B30,B38,0]: c[B30,0] - c[B38,0] + 96 delta[B30,B38,0] <= 76.5
 PM[B30,B38,1]: c[B30,1] - c[B38,1] + 10000 delta[B30,B38,1] <= 9983.5
 PM[B30,B39,0]: c[B30,0] - c[B39,0] + 96 delta[B30,B39,0] <= 74
 PM[B30,B39,1]: c[B30,1] - c[B39,1] + 10000 delta[B30,B39,1] <= 9979.5
 PM[B30,B40,0]: c[B30,0] - c[B40,0] + 96 delta[B30,B40,0] <= 79
 PM[B30,B40,1]: c[B30,1] - c[B40,1] + 10000 delta[B30,B40,1] <= 9987
 PM[B30,B41,0]: c[B30,0] - c[B41,0] + 100 delta[B30,B41,0] <= 88.5
 PM[B30,B41,1]: c[B30,1] - c[B41,1] + 10000 delta[B30,B41,1] <= 9985
 PM[B30,B42,0]: c[B30,0] - c[B42,0] + 100 delta[B30,B42,0] <= 85.5
 PM[B30,B42,1]: c[B30,1] - c[B42,1] + 10000 delta[B30,B42,1] <= 9970.5
 PM[B30,B43,0]: c[B30,0] - c[B43,0] + 96 delta[B30,B43,0] <= 80
 PM[B30,B43,1]: c[B30,1] - c[B43,1] + 10000 delta[B30,B43,1] <= 9979.5
 PM[B30,B44,0]: c[B30,0] - c[B44,0] + 100 delta[B30,B44,0] <= 85
 PM[B30,B44,1]: c[B30,1] - c[B44,1] + 10000 delta[B30,B44,1] <= 9980
 PM[B30,B45,0]: c[B30,0] - c[B45,0] + 100 delta[B30,B45,0] <= 88
 PM[B30,B45,1]: c[B30,1] - c[B45,1] + 10000 delta[B30,B45,1] <= 9973
 PM[B30,B46,0]: c[B30,0] - c[B46,0] + 96 delta[B30,B46,0] <= 80.5
 PM[B30,B46,1]: c[B30,1] - c[B46,1] + 10000 delta[B30,B46,1] <= 9986.5
 PM[B30,B47,0]: c[B30,0] - c[B47,0] + 100 delta[B30,B47,0] <= 87
 PM[B30,B47,1]: c[B30,1] - c[B47,1] + 10000 delta[B30,B47,1] <= 9984.5
 PM[B30,B48,0]: c[B30,0] - c[B48,0] + 100 delta[B30,B48,0] <= 85.5
 PM[B30,B48,1]: c[B30,1] - c[B48,1] + 10000 delta[B30,B48,1] <= 9985.5
 PM[B30,B49,0]: c[B30,0] - c[B49,0] + 100 delta[B30,B49,0] <= 87
 PM[B30,B49,1]: c[B30,1] - c[B49,1] + 10000 delta[B30,B49,1] <= 9982.5
 PM[B31,B0,0]: - c[B0,0] + c[B31,0] + 100 delta[B31,B0,0] <= 86.5
 PM[B31,B0,1]: - c[B0,1] + c[B31,1] + 10000 delta[B31,B0,1] <= 9980
 PM[B31,B1,0]: - c[B1,0] + c[B31,0] + 100 delta[B31,B1,0] <= 69
 PM[B31,B1,1]: - c[B1,1] + c[B31,1] + 10000 delta[B31,B1,1] <= 9985
 PM[B31,B2,0]: - c[B2,0] + c[B31,0] + 100 delta[B31,B2,0] <= 88
 PM[B31,B2,1]: - c[B2,1] + c[B31,1] + 10000 delta[B31,B2,1] <= 9986
 PM[B31,B3,0]: - c[B3,0] + c[B31,0] + 100 delta[B31,B3,0] <= 73
 PM[B31,B3,1]: - c[B3,1] + c[B31,1] + 10000 delta[B31,B3,1] <= 9981
 PM[B31,B4,0]: - c[B4,0] + c[B31,0] + 100 delta[B31,B4,0] <= 88
 PM[B31,B4,1]: - c[B4,1] + c[B31,1] + 10000 delta[B31,B4,1] <= 9985
 PM[B31,B5,0]: - c[B5,0] + c[B31,0] + 100 delta[B31,B5,0] <= 88
 PM[B31,B5,1]: - c[B5,1] + c[B31,1] + 10000 delta[B31,B5,1] <= 9988.5
 PM[B31,B6,0]: - c[B6,0] + c[B31,0] + 100 delta[B31,B6,0] <= 83.5
 PM[B31,B6,1]: - c[B6,1] + c[B31,1] + 10000 delta[B31,B6,1] <= 9987.5
 PM[B31,B7,0]: - c[B7,0] + c[B31,0] + 100 delta[B31,B7,0] <= 78.5
 PM[B31,B7,1]: - c[B7,1] + c[B31,1] + 10000 delta[B31,B7,1] <= 9987.5
 PM[B31,B8,0]: - c[B8,0] + c[B31,0] + 100 delta[B31,B8,0] <= 81.5
 PM[B31,B8,1]: - c[B8,1] + c[B31,1] + 10000 delta[B31,B8,1] <= 9980.5
 PM[B31,B9,0]: - c[B9,0] + c[B31,0] + 100 delta[B31,B9,0] <= 84.5
 PM[B31,B9,1]: - c[B9,1] + c[B31,1] + 10000 delta[B31,B9,1] <= 9987
 PM[B31,B10,0]: - c[B10,0] + c[B31,0] + 100 delta[B31,B10,0] <= 86
 PM[B31,B10,1]: - c[B10,1] + c[B31,1] + 10000 delta[B31,B10,1] <= 9986.5
 PM[B31,B11,0]: - c[B11,0] + c[B31,0] + 100 delta[B31,B11,0] <= 82.5
 PM[B31,B11,1]: - c[B11,1] + c[B31,1] + 10000 delta[B31,B11,1] <= 9980.5
 PM[B31,B12,0]: - c[B12,0] + c[B31,0] + 100 delta[B31,B12,0] <= 81.5
 PM[B31,B12,1]: - c[B12,1] + c[B31,1] + 10000 delta[B31,B12,1] <= 9984.5
 PM[B31,B13,0]: - c[B13,0] + c[B31,0] + 100 delta[B31,B13,0] <= 81
 PM[B31,B13,1]: - c[B13,1] + c[B31,1] + 10000 delta[B31,B13,1] <= 9987.5
 PM[B31,B14,0]: - c[B14,0] + c[B31,0] + 100 delta[B31,B14,0] <= 82
 PM[B31,B14,1]: - c[B14,1] + c[B31,1] + 10000 delta[B31,B14,1] <= 9984
 PM[B31,B15,0]: - c[B15,0] + c[B31,0] + 100 delta[B31,B15,0] <= 83
 PM[B31,B15,1]: - c[B15,1] + c[B31,1] + 10000 delta[B31,B15,1] <= 9975.5
 PM[B31,B16,0]: - c[B16,0] + c[B31,0] + 100 delta[B31,B16,0] <= 84.5
 PM[B31,B16,1]: - c[B16,1] + c[B31,1] + 10000 delta[B31,B16,1] <= 9982.5
 PM[B31,B17,0]: - c[B17,0] + c[B31,0] + 100 delta[B31,B17,0] <= 75
 PM[B31,B17,1]: - c[B17,1] + c[B31,1] + 10000 delta[B31,B17,1] <= 9966
 PM[B31,B18,0]: - c[B18,0] + c[B31,0] + 100 delta[B31,B18,0] <= 77
 PM[B31,B18,1]: - c[B18,1] + c[B31,1] + 10000 delta[B31,B18,1] <= 9988
 PM[B31,B19,0]: - c[B19,0] + c[B31,0] + 100 delta[B31,B19,0] <= 84.5
 PM[B31,B19,1]: - c[B19,1] + c[B31,1] + 10000 delta[B31,B19,1] <= 9986.5
 PM[B31,B20,0]: - c[B20,0] + c[B31,0] + 100 delta[B31,B20,0] <= 83
 PM[B31,B20,1]: - c[B20,1] + c[B31,1] + 10000 delta[B31,B20,1] <= 9976.5
 PM[B31,B21,0]: - c[B21,0] + c[B31,0] + 100 delta[B31,B21,0] <= 80
 PM[B31,B21,1]: - c[B21,1] + c[B31,1] + 10000 delta[B31,B21,1] <= 9981.5
 PM[B31,B22,0]: - c[B22,0] + c[B31,0] + 100 delta[B31,B22,0] <= 86.5
 PM[B31,B22,1]: - c[B22,1] + c[B31,1] + 10000 delta[B31,B22,1] <= 9971.5
 PM[B31,B23,0]: - c[B23,0] + c[B31,0] + 100 delta[B31,B23,0] <= 87
 PM[B31,B23,1]: - c[B23,1] + c[B31,1] + 10000 delta[B31,B23,1] <= 9983.5
 PM[B31,B24,0]: - c[B24,0] + c[B31,0] + 100 delta[B31,B24,0] <= 77
 PM[B31,B24,1]: - c[B24,1] + c[B31,1] + 10000 delta[B31,B24,1] <= 9969
 PM[B31,B25,0]: - c[B25,0] + c[B31,0] + 100 delta[B31,B25,0] <= 83
 PM[B31,B25,1]: - c[B25,1] + c[B31,1] + 10000 delta[B31,B25,1] <= 9987
 PM[B31,B26,0]: - c[B26,0] + c[B31,0] + 100 delta[B31,B26,0] <= 87.5
 PM[B31,B26,1]: - c[B26,1] + c[B31,1] + 10000 delta[B31,B26,1] <= 9988
 PM[B31,B27,0]: - c[B27,0] + c[B31,0] + 100 delta[B31,B27,0] <= 86
 PM[B31,B27,1]: - c[B27,1] + c[B31,1] + 10000 delta[B31,B27,1] <= 9980
 PM[B31,B28,0]: - c[B28,0] + c[B31,0] + 100 delta[B31,B28,0] <= 82.5
 PM[B31,B28,1]: - c[B28,1] + c[B31,1] + 10000 delta[B31,B28,1] <= 9988
 PM[B31,B29,0]: - c[B29,0] + c[B31,0] + 100 delta[B31,B29,0] <= 72
 PM[B31,B29,1]: - c[B29,1] + c[B31,1] + 10000 delta[B31,B29,1] <= 9977
 PM[B31,B30,0]: - c[B30,0] + c[B31,0] + 100 delta[B31,B30,0] <= 85
 PM[B31,B30,1]: - c[B30,1] + c[B31,1] + 10000 delta[B31,B30,1] <= 9981.5
 PM[B31,B32,0]: c[B31,0] - c[B32,0] + 100 delta[B31,B32,0] <= 75
 PM[B31,B32,1]: c[B31,1] - c[B32,1] + 10000 delta[B31,B32,1] <= 9983
 PM[B31,B33,0]: c[B31,0] - c[B33,0] + 100 delta[B31,B33,0] <= 74.5
 PM[B31,B33,1]: c[B31,1] - c[B33,1] + 10000 delta[B31,B33,1] <= 9988.5
 PM[B31,B34,0]: c[B31,0] - c[B34,0] + 100 delta[B31,B34,0] <= 88.5
 PM[B31,B34,1]: c[B31,1] - c[B34,1] + 10000 delta[B31,B34,1] <= 9985
 PM[B31,B35,0]: c[B31,0] - c[B35,0] + 100 delta[B31,B35,0] <= 76
 PM[B31,B35,1]: c[B31,1] - c[B35,1] + 10000 delta[B31,B35,1] <= 9978
 PM[B31,B36,0]: c[B31,0] - c[B36,0] + 100 delta[B31,B36,0] <= 86
 PM[B31,B36,1]: c[B31,1] - c[B36,1] + 10000 delta[B31,B36,1] <= 9986
 PM[B31,B37,0]: c[B31,0] - c[B37,0] + 100 delta[B31,B37,0] <= 83
 PM[B31,B37,1]: c[B31,1] - c[B37,1] + 10000 delta[B31,B37,1] <= 9988
 PM[B31,B38,0]: c[B31,0] - c[B38,0] + 100 delta[B31,B38,0] <= 74.5
 PM[B31,B38,1]: c[B31,1] - c[B38,1] + 10000 delta[B31,B38,1] <= 9985
 PM[B31,B39,0]: c[B31,0] - c[B39,0] + 100 delta[B31,B39,0] <= 72
 PM[B31,B39,1]: c[B31,1] - c[B39,1] + 10000 delta[B31,B39,1] <= 9981
 PM[B31,B40,0]: c[B31,0] - c[B40,0] + 100 delta[B31,B40,0] <= 77
 PM[B31,B40,1]: c[B31,1] - c[B40,1] + 10000 delta[B31,B40,1] <= 9988.5
 PM[B31,B41,0]: c[B31,0] - c[B41,0] + 100 delta[B31,B41,0] <= 86.5
 PM[B31,B41,1]: c[B31,1] - c[B41,1] + 10000 delta[B31,B41,1] <= 9986.5
 PM[B31,B42,0]: c[B31,0] - c[B42,0] + 100 delta[B31,B42,0] <= 83.5
 PM[B31,B42,1]: c[B31,1] - c[B42,1] + 10000 delta[B31,B42,1] <= 9972
 PM[B31,B43,0]: c[B31,0] - c[B43,0] + 100 delta[B31,B43,0] <= 78
 PM[B31,B43,1]: c[B31,1] - c[B43,1] + 10000 delta[B31,B43,1] <= 9981
 PM[B31,B44,0]: c[B31,0] - c[B44,0] + 100 delta[B31,B44,0] <= 83
 PM[B31,B44,1]: c[B31,1] - c[B44,1] + 10000 delta[B31,B44,1] <= 9981.5
 PM[B31,B45,0]: c[B31,0] - c[B45,0] + 100 delta[B31,B45,0] <= 86
 PM[B31,B45,1]: c[B31,1] - c[B45,1] + 10000 delta[B31,B45,1] <= 9974.5
 PM[B31,B46,0]: c[B31,0] - c[B46,0] + 100 delta[B31,B46,0] <= 78.5
 PM[B31,B46,1]: c[B31,1] - c[B46,1] + 10000 delta[B31,B46,1] <= 9988
 PM[B31,B47,0]: c[B31,0] - c[B47,0] + 100 delta[B31,B47,0] <= 85
 PM[B31,B47,1]: c[B31,1] - c[B47,1] + 10000 delta[B31,B47,1] <= 9986
 PM[B31,B48,0]: c[B31,0] - c[B48,0] + 100 delta[B31,B48,0] <= 83.5
 PM[B31,B48,1]: c[B31,1] - c[B48,1] + 10000 delta[B31,B48,1] <= 9987
 PM[B31,B49,0]: c[B31,0] - c[B49,0] + 100 delta[B31,B49,0] <= 85
 PM[B31,B49,1]: c[B31,1] - c[B49,1] + 10000 delta[B31,B49,1] <= 9984
 PM[B32,B0,0]: - c[B0,0] + c[B32,0] + 100 delta[B32,B0,0] <= 89.5
 PM[B32,B0,1]: - c[B0,1] + c[B32,1] + 10000 delta[B32,B0,1] <= 9984
 PM[B32,B1,0]: - c[B1,0] + c[B32,0] + 100 delta[B32,B1,0] <= 72
 PM[B32,B1,1]: - c[B1,1] + c[B32,1] + 10000 delta[B32,B1,1] <= 9989
 PM[B32,B2,0]: - c[B2,0] + c[B32,0] + 100 delta[B32,B2,0] <= 91
 PM[B32,B2,1]: - c[B2,1] + c[B32,1] + 10000 delta[B32,B2,1] <= 9990
 PM[B32,B3,0]: - c[B3,0] + c[B32,0] + 100 delta[B32,B3,0] <= 76
 PM[B32,B3,1]: - c[B3,1] + c[B32,1] + 10000 delta[B32,B3,1] <= 9985
 PM[B32,B4,0]: - c[B4,0] + c[B32,0] + 100 delta[B32,B4,0] <= 91
 PM[B32,B4,1]: - c[B4,1] + c[B32,1] + 10000 delta[B32,B4,1] <= 9989
 PM[B32,B5,0]: - c[B5,0] + c[B32,0] + 100 delta[B32,B5,0] <= 91
 PM[B32,B5,1]: - c[B5,1] + c[B32,1] + 10000 delta[B32,B5,1] <= 9992.5
 PM[B32,B6,0]: - c[B6,0] + c[B32,0] + 100 delta[B32,B6,0] <= 86.5
 PM[B32,B6,1]: - c[B6,1] + c[B32,1] + 10000 delta[B32,B6,1] <= 9991.5
 PM[B32,B7,0]: - c[B7,0] + c[B32,0] + 100 delta[B32,B7,0] <= 81.5
 PM[B32,B7,1]: - c[B7,1] + c[B32,1] + 10000 delta[B32,B7,1] <= 9991.5
 PM[B32,B8,0]: - c[B8,0] + c[B32,0] + 100 delta[B32,B8,0] <= 84.5
 PM[B32,B8,1]: - c[B8,1] + c[B32,1] + 10000 delta[B32,B8,1] <= 9984.5
 PM[B32,B9,0]: - c[B9,0] + c[B32,0] + 100 delta[B32,B9,0] <= 87.5
 PM[B32,B9,1]: - c[B9,1] + c[B32,1] + 10000 delta[B32,B9,1] <= 9991
 PM[B32,B10,0]: - c[B10,0] + c[B32,0] + 100 delta[B32,B10,0] <= 89
 PM[B32,B10,1]: - c[B10,1] + c[B32,1] + 10000 delta[B32,B10,1] <= 9990.5
 PM[B32,B11,0]: - c[B11,0] + c[B32,0] + 100 delta[B32,B11,0] <= 85.5
 PM[B32,B11,1]: - c[B11,1] + c[B32,1] + 10000 delta[B32,B11,1] <= 9984.5
 PM[B32,B12,0]: - c[B12,0] + c[B32,0] + 100 delta[B32,B12,0] <= 84.5
 PM[B32,B12,1]: - c[B12,1] + c[B32,1] + 10000 delta[B32,B12,1] <= 9988.5
 PM[B32,B13,0]: - c[B13,0] + c[B32,0] + 100 delta[B32,B13,0] <= 84
 PM[B32,B13,1]: - c[B13,1] + c[B32,1] + 10000 delta[B32,B13,1] <= 9991.5
 PM[B32,B14,0]: - c[B14,0] + c[B32,0] + 100 delta[B32,B14,0] <= 85
 PM[B32,B14,1]: - c[B14,1] + c[B32,1] + 10000 delta[B32,B14,1] <= 9988
 PM[B32,B15,0]: - c[B15,0] + c[B32,0] + 100 delta[B32,B15,0] <= 86
 PM[B32,B15,1]: - c[B15,1] + c[B32,1] + 10000 delta[B32,B15,1] <= 9979.5
 PM[B32,B16,0]: - c[B16,0] + c[B32,0] + 100 delta[B32,B16,0] <= 87.5
 PM[B32,B16,1]: - c[B16,1] + c[B32,1] + 10000 delta[B32,B16,1] <= 9986.5
 PM[B32,B17,0]: - c[B17,0] + c[B32,0] + 100 delta[B32,B17,0] <= 78
 PM[B32,B17,1]: - c[B17,1] + c[B32,1] + 10000 delta[B32,B17,1] <= 9970
 PM[B32,B18,0]: - c[B18,0] + c[B32,0] + 100 delta[B32,B18,0] <= 80
 PM[B32,B18,1]: - c[B18,1] + c[B32,1] + 10000 delta[B32,B18,1] <= 9992
 PM[B32,B19,0]: - c[B19,0] + c[B32,0] + 100 delta[B32,B19,0] <= 87.5
 PM[B32,B19,1]: - c[B19,1] + c[B32,1] + 10000 delta[B32,B19,1] <= 9990.5
 PM[B32,B20,0]: - c[B20,0] + c[B32,0] + 100 delta[B32,B20,0] <= 86
 PM[B32,B20,1]: - c[B20,1] + c[B32,1] + 10000 delta[B32,B20,1] <= 9980.5
 PM[B32,B21,0]: - c[B21,0] + c[B32,0] + 100 delta[B32,B21,0] <= 83
 PM[B32,B21,1]: - c[B21,1] + c[B32,1] + 10000 delta[B32,B21,1] <= 9985.5
 PM[B32,B22,0]: - c[B22,0] + c[B32,0] + 100 delta[B32,B22,0] <= 89.5
 PM[B32,B22,1]: - c[B22,1] + c[B32,1] + 10000 delta[B32,B22,1] <= 9975.5
 PM[B32,B23,0]: - c[B23,0] + c[B32,0] + 100 delta[B32,B23,0] <= 90
 PM[B32,B23,1]: - c[B23,1] + c[B32,1] + 10000 delta[B32,B23,1] <= 9987.5
 PM[B32,B24,0]: - c[B24,0] + c[B32,0] + 100 delta[B32,B24,0] <= 80
 PM[B32,B24,1]: - c[B24,1] + c[B32,1] + 10000 delta[B32,B24,1] <= 9973
 PM[B32,B25,0]: - c[B25,0] + c[B32,0] + 100 delta[B32,B25,0] <= 86
 PM[B32,B25,1]: - c[B25,1] + c[B32,1] + 10000 delta[B32,B25,1] <= 9991
 PM[B32,B26,0]: - c[B26,0] + c[B32,0] + 100 delta[B32,B26,0] <= 90.5
 PM[B32,B26,1]: - c[B26,1] + c[B32,1] + 10000 delta[B32,B26,1] <= 9992
 PM[B32,B27,0]: - c[B27,0] + c[B32,0] + 100 delta[B32,B27,0] <= 89
 PM[B32,B27,1]: - c[B27,1] + c[B32,1] + 10000 delta[B32,B27,1] <= 9984
 PM[B32,B28,0]: - c[B28,0] + c[B32,0] + 100 delta[B32,B28,0] <= 85.5
 PM[B32,B28,1]: - c[B28,1] + c[B32,1] + 10000 delta[B32,B28,1] <= 9992
 PM[B32,B29,0]: - c[B29,0] + c[B32,0] + 100 delta[B32,B29,0] <= 75
 PM[B32,B29,1]: - c[B29,1] + c[B32,1] + 10000 delta[B32,B29,1] <= 9981
 PM[B32,B30,0]: - c[B30,0] + c[B32,0] + 100 delta[B32,B30,0] <= 88
 PM[B32,B30,1]: - c[B30,1] + c[B32,1] + 10000 delta[B32,B30,1] <= 9985.5
 PM[B32,B31,0]: - c[B31,0] + c[B32,0] + 100 delta[B32,B31,0] <= 85
 PM[B32,B31,1]: - c[B31,1] + c[B32,1] + 10000 delta[B32,B31,1] <= 9987
 PM[B32,B33,0]: c[B32,0] - c[B33,0] + 100 delta[B32,B33,0] <= 77.5
 PM[B32,B33,1]: c[B32,1] - c[B33,1] + 10000 delta[B32,B33,1] <= 9992.5
 PM[B32,B34,0]: c[B32,0] - c[B34,0] + 100 delta[B32,B34,0] <= 91.5
 PM[B32,B34,1]: c[B32,1] - c[B34,1] + 10000 delta[B32,B34,1] <= 9989
 PM[B32,B35,0]: c[B32,0] - c[B35,0] + 100 delta[B32,B35,0] <= 79
 PM[B32,B35,1]: c[B32,1] - c[B35,1] + 10000 delta[B32,B35,1] <= 9982
 PM[B32,B36,0]: c[B32,0] - c[B36,0] + 100 delta[B32,B36,0] <= 89
 PM[B32,B36,1]: c[B32,1] - c[B36,1] + 10000 delta[B32,B36,1] <= 9990
 PM[B32,B37,0]: c[B32,0] - c[B37,0] + 100 delta[B32,B37,0] <= 86
 PM[B32,B37,1]: c[B32,1] - c[B37,1] + 10000 delta[B32,B37,1] <= 9992
 PM[B32,B38,0]: c[B32,0] - c[B38,0] + 100 delta[B32,B38,0] <= 77.5
 PM[B32,B38,1]: c[B32,1] - c[B38,1] + 10000 delta[B32,B38,1] <= 9989
 PM[B32,B39,0]: c[B32,0] - c[B39,0] + 100 delta[B32,B39,0] <= 75
 PM[B32,B39,1]: c[B32,1] - c[B39,1] + 10000 delta[B32,B39,1] <= 9985
 PM[B32,B40,0]: c[B32,0] - c[B40,0] + 100 delta[B32,B40,0] <= 80
 PM[B32,B40,1]: c[B32,1] - c[B40,1] + 10000 delta[B32,B40,1] <= 9992.5
 PM[B32,B41,0]: c[B32,0] - c[B41,0] + 100 delta[B32,B41,0] <= 89.5
 PM[B32,B41,1]: c[B32,1] - c[B41,1] + 10000 delta[B32,B41,1] <= 9990.5
 PM[B32,B42,0]: c[B32,0] - c[B42,0] + 100 delta[B32,B42,0] <= 86.5
 PM[B32,B42,1]: c[B32,1] - c[B42,1] + 10000 delta[B32,B42,1] <= 9976
 PM[B32,B43,0]: c[B32,0] - c[B43,0] + 100 delta[B32,B43,0] <= 81
 PM[B32,B43,1]: c[B32,1] - c[B43,1] + 10000 delta[B32,B43,1] <= 9985
 PM[B32,B44,0]: c[B32,0] - c[B44,0] + 100 delta[B32,B44,0] <= 86
 PM[B32,B44,1]: c[B32,1] - c[B44,1] + 10000 delta[B32,B44,1] <= 9985.5
 PM[B32,B45,0]: c[B32,0] - c[B45,0] + 100 delta[B32,B45,0] <= 89
 PM[B32,B45,1]: c[B32,1] - c[B45,1] + 10000 delta[B32,B45,1] <= 9978.5
 PM[B32,B46,0]: c[B32,0] - c[B46,0] + 100 delta[B32,B46,0] <= 81.5
 PM[B32,B46,1]: c[B32,1] - c[B46,1] + 10000 delta[B32,B46,1] <= 9992
 PM[B32,B47,0]: c[B32,0] - c[B47,0] + 100 delta[B32,B47,0] <= 88
 PM[B32,B47,1]: c[B32,1] - c[B47,1] + 10000 delta[B32,B47,1] <= 9990
 PM[B32,B48,0]: c[B32,0] - c[B48,0] + 100 delta[B32,B48,0] <= 86.5
 PM[B32,B48,1]: c[B32,1] - c[B48,1] + 10000 delta[B32,B48,1] <= 9991
 PM[B32,B49,0]: c[B32,0] - c[B49,0] + 100 delta[B32,B49,0] <= 88
 PM[B32,B49,1]: c[B32,1] - c[B49,1] + 10000 delta[B32,B49,1] <= 9988
 PM[B33,B0,0]: - c[B0,0] + c[B33,0] + 100 delta[B33,B0,0] <= 81
 PM[B33,B0,1]: - c[B0,1] + c[B33,1] + 9994 delta[B33,B0,1] <= 9979.5
 PM[B33,B1,0]: - c[B1,0] + c[B33,0] + 93 delta[B33,B1,0] <= 63.5
 PM[B33,B1,1]: - c[B1,1] + c[B33,1] + 10000 delta[B33,B1,1] <= 9984.5
 PM[B33,B2,0]: - c[B2,0] + c[B33,0] + 100 delta[B33,B2,0] <= 82.5
 PM[B33,B2,1]: - c[B2,1] + c[B33,1] + 10000 delta[B33,B2,1] <= 9985.5
 PM[B33,B3,0]: - c[B3,0] + c[B33,0] + 93 delta[B33,B3,0] <= 67.5
 PM[B33,B3,1]: - c[B3,1] + c[B33,1] + 9996 delta[B33,B3,1] <= 9980.5
 PM[B33,B4,0]: - c[B4,0] + c[B33,0] + 100 delta[B33,B4,0] <= 82.5
 PM[B33,B4,1]: - c[B4,1] + c[B33,1] + 10000 delta[B33,B4,1] <= 9984.5
 PM[B33,B5,0]: - c[B5,0] + c[B33,0] + 100 delta[B33,B5,0] <= 82.5
 PM[B33,B5,1]: - c[B5,1] + c[B33,1] + 10000 delta[B33,B5,1] <= 9988
 PM[B33,B6,0]: - c[B6,0] + c[B33,0] + 100 delta[B33,B6,0] <= 78
 PM[B33,B6,1]: - c[B6,1] + c[B33,1] + 10000 delta[B33,B6,1] <= 9987
 PM[B33,B7,0]: - c[B7,0] + c[B33,0] + 95 delta[B33,B7,0] <= 73
 PM[B33,B7,1]: - c[B7,1] + c[B33,1] + 10000 delta[B33,B7,1] <= 9987
 PM[B33,B8,0]: - c[B8,0] + c[B33,0] + 94 delta[B33,B8,0] <= 76
 PM[B33,B8,1]: - c[B8,1] + c[B33,1] + 9997 delta[B33,B8,1] <= 9980
 PM[B33,B9,0]: - c[B9,0] + c[B33,0] + 99 delta[B33,B9,0] <= 79
 PM[B33,B9,1]: - c[B9,1] + c[B33,1] + 10000 delta[B33,B9,1] <= 9986.5
 PM[B33,B10,0]: - c[B10,0] + c[B33,0] + 100 delta[B33,B10,0] <= 80.5
 PM[B33,B10,1]: - c[B10,1] + c[B33,1] + 10000 delta[B33,B10,1] <= 9986
 PM[B33,B11,0]: - c[B11,0] + c[B33,0] + 96 delta[B33,B11,0] <= 77
 PM[B33,B11,1]: - c[B11,1] + c[B33,1] + 9994 delta[B33,B11,1] <= 9980
 PM[B33,B12,0]: - c[B12,0] + c[B33,0] + 100 delta[B33,B12,0] <= 76
 PM[B33,B12,1]: - c[B12,1] + c[B33,1] + 9999 delta[B33,B12,1] <= 9984
 PM[B33,B13,0]: - c[B13,0] + c[B33,0] + 97 delta[B33,B13,0] <= 75.5
 PM[B33,B13,1]: - c[B13,1] + c[B33,1] + 10000 delta[B33,B13,1] <= 9987
 PM[B33,B14,0]: - c[B14,0] + c[B33,0] + 98 delta[B33,B14,0] <= 76.5
 PM[B33,B14,1]: - c[B14,1] + c[B33,1] + 9997 delta[B33,B14,1] <= 9983.5
 PM[B33,B15,0]: - c[B15,0] + c[B33,0] + 100 delta[B33,B15,0] <= 77.5
 PM[B33,B15,1]: - c[B15,1] + c[B33,1] + 9994 delta[B33,B15,1] <= 9975
 PM[B33,B16,0]: - c[B16,0] + c[B33,0] + 100 delta[B33,B16,0] <= 79
 PM[B33,B16,1]: - c[B16,1] + c[B33,1] + 9995 delta[B33,B16,1] <= 9982
 PM[B33,B17,0]: - c[B17,0] + c[B33,0] + 93 delta[B33,B17,0] <= 69.5
 PM[B33,B17,1]: - c[B17,1] + c[B33,1] + 9994 delta[B33,B17,1] <= 9965.5
 PM[B33,B18,0]: - c[B18,0] + c[B33,0] + 96 delta[B33,B18,0] <= 71.5
 PM[B33,B18,1]: - c[B18,1] + c[B33,1] + 10000 delta[B33,B18,1] <= 9987.5
 PM[B33,B19,0]: - c[B19,0] + c[B33,0] + 100 delta[B33,B19,0] <= 79
 PM[B33,B19,1]: - c[B19,1] + c[B33,1] + 10000 delta[B33,B19,1] <= 9986
 PM[B33,B20,0]: - c[B20,0] + c[B33,0] + 100 delta[B33,B20,0] <= 77.5
 PM[B33,B20,1]: - c[B20,1] + c[B33,1] + 9994 delta[B33,B20,1] <= 9976
 PM[B33,B21,0]: - c[B21,0] + c[B33,0] + 100 delta[B33,B21,0] <= 74.5
 PM[B33,B21,1]: - c[B21,1] + c[B33,1] + 9994 delta[B33,B21,1] <= 9981
 PM[B33,B22,0]: - c[B22,0] + c[B33,0] + 100 delta[B33,B22,0] <= 81
 PM[B33,B22,1]: - c[B22,1] + c[B33,1] + 9994 delta[B33,B22,1] <= 9971
 PM[B33,B23,0]: - c[B23,0] + c[B33,0] + 100 delta[B33,B23,0] <= 81.5
 PM[B33,B23,1]: - c[B23,1] + c[B33,1] + 10000 delta[B33,B23,1] <= 9983
 PM[B33,B24,0]: - c[B24,0] + c[B33,0] + 93 delta[B33,B24,0] <= 71.5
 PM[B33,B24,1]: - c[B24,1] + c[B33,1] + 9994 delta[B33,B24,1] <= 9968.5
 PM[B33,B25,0]: - c[B25,0] + c[B33,0] + 100 delta[B33,B25,0] <= 77.5
 PM[B33,B25,1]: - c[B25,1] + c[B33,1] + 10000 delta[B33,B25,1] <= 9986.5
 PM[B33,B26,0]: - c[B26,0] + c[B33,0] + 100 delta[B33,B26,0] <= 82
 PM[B33,B26,1]: - c[B26,1] + c[B33,1] + 10000 delta[B33,B26,1] <= 9987.5
 PM[B33,B27,0]: - c[B27,0] + c[B33,0] + 99 delta[B33,B27,0] <= 80.5
 PM[B33,B27,1]: - c[B27,1] + c[B33,1] + 9998 delta[B33,B27,1] <= 9979.5
 PM[B33,B28,0]: - c[B28,0] + c[B33,0] + 100 delta[B33,B28,0] <= 77
 PM[B33,B28,1]: - c[B28,1] + c[B33,1] + 10000 delta[B33,B28,1] <= 9987.5
 PM[B33,B29,0]: - c[B29,0] + c[B33,0] + 93 delta[B33,B29,0] <= 66.5
 PM[B33,B29,1]: - c[B29,1] + c[B33,1] + 9994 delta[B33,B29,1] <= 9976.5
 PM[B33,B30,0]: - c[B30,0] + c[B33,0] + 97 delta[B33,B30,0] <= 79.5
 PM[B33,B30,1]: - c[B30,1] + c[B33,1] + 10000 delta[B33,B30,1] <= 9981
 PM[B33,B31,0]: - c[B31,0] + c[B33,0] + 100 delta[B33,B31,0] <= 76.5
 PM[B33,B31,1]: - c[B31,1] + c[B33,1] + 10000 delta[B33,B31,1] <= 9982.5
 PM[B33,B32,0]: - c[B32,0] + c[B33,0] + 93 delta[B33,B32,0] <= 69.5
 PM[B33,B32,1]: - c[B32,1] + c[B33,1] + 9996 delta[B33,B32,1] <= 9982.5
 PM[B33,B34,0]: c[B33,0] - c[B34,0] + 100 delta[B33,B34,0] <= 83
 PM[B33,B34,1]: c[B33,1] - c[B34,1] + 10000 delta[B33,B34,1] <= 9984.5
 PM[B33,B35,0]: c[B33,0] - c[B35,0] + 93 delta[B33,B35,0] <= 70.5
 PM[B33,B35,1]: c[B33,1] - c[B35,1] + 9994 delta[B33,B35,1] <= 9977.5
 PM[B33,B36,0]: c[B33,0] - c[B36,0] + 100 delta[B33,B36,0] <= 80.5
 PM[B33,B36,1]: c[B33,1] - c[B36,1] + 10000 delta[B33,B36,1] <= 9985.5
 PM[B33,B37,0]: c[B33,0] - c[B37,0] + 95 delta[B33,B37,0] <= 77.5
 PM[B33,B37,1]: c[B33,1] - c[B37,1] + 10000 delta[B33,B37,1] <= 9987.5
 PM[B33,B38,0]: c[B33,0] - c[B38,0] + 93 delta[B33,B38,0] <= 69
 PM[B33,B38,1]: c[B33,1] - c[B38,1] + 10000 delta[B33,B38,1] <= 9984.5
 PM[B33,B39,0]: c[B33,0] - c[B39,0] + 93 delta[B33,B39,0] <= 66.5
 PM[B33,B39,1]: c[B33,1] - c[B39,1] + 10000 delta[B33,B39,1] <= 9980.5
 PM[B33,B40,0]: c[B33,0] - c[B40,0] + 93 delta[B33,B40,0] <= 71.5
 PM[B33,B40,1]: c[B33,1] - c[B40,1] + 10000 delta[B33,B40,1] <= 9988
 PM[B33,B41,0]: c[B33,0] - c[B41,0] + 100 delta[B33,B41,0] <= 81
 PM[B33,B41,1]: c[B33,1] - c[B41,1] + 10000 delta[B33,B41,1] <= 9986
 PM[B33,B42,0]: c[B33,0] - c[B42,0] + 100 delta[B33,B42,0] <= 78
 PM[B33,B42,1]: c[B33,1] - c[B42,1] + 9994 delta[B33,B42,1] <= 9971.5
 PM[B33,B43,0]: c[B33,0] - c[B43,0] + 95 delta[B33,B43,0] <= 72.5
 PM[B33,B43,1]: c[B33,1] - c[B43,1] + 9994 delta[B33,B43,1] <= 9980.5
 PM[B33,B44,0]: c[B33,0] - c[B44,0] + 100 delta[B33,B44,0] <= 77.5
 PM[B33,B44,1]: c[B33,1] - c[B44,1] + 9995 delta[B33,B44,1] <= 9981
 PM[B33,B45,0]: c[B33,0] - c[B45,0] + 100 delta[B33,B45,0] <= 80.5
 PM[B33,B45,1]: c[B33,1] - c[B45,1] + 9994 delta[B33,B45,1] <= 9974
 PM[B33,B46,0]: c[B33,0] - c[B46,0] + 93 delta[B33,B46,0] <= 73
 PM[B33,B46,1]: c[B33,1] - c[B46,1] + 10000 delta[B33,B46,1] <= 9987.5
 PM[B33,B47,0]: c[B33,0] - c[B47,0] + 100 delta[B33,B47,0] <= 79.5
 PM[B33,B47,1]: c[B33,1] - c[B47,1] + 10000 delta[B33,B47,1] <= 9985.5
 PM[B33,B48,0]: c[B33,0] - c[B48,0] + 100 delta[B33,B48,0] <= 78
 PM[B33,B48,1]: c[B33,1] - c[B48,1] + 10000 delta[B33,B48,1] <= 9986.5
 PM[B33,B49,0]: c[B33,0] - c[B49,0] + 100 delta[B33,B49,0] <= 79.5
 PM[B33,B49,1]: c[B33,1] - c[B49,1] + 9996 delta[B33,B49,1] <= 9983.5
 PM[B34,B0,0]: - c[B0,0] + c[B34,0] + 100 delta[B34,B0,0] <= 93
 PM[B34,B0,1]: - c[B0,1] + c[B34,1] + 9995 delta[B34,B0,1] <= 9977
 PM[B34,B1,0]: - c[B1,0] + c[B34,0] + 100 delta[B34,B1,0] <= 75.5
 PM[B34,B1,1]: - c[B1,1] + c[B34,1] + 10000 delta[B34,B1,1] <= 9982
 PM[B34,B2,0]: - c[B2,0] + c[B34,0] + 100 delta[B34,B2,0] <= 94.5
 PM[B34,B2,1]: - c[B2,1] + c[B34,1] + 10000 delta[B34,B2,1] <= 9983
 PM[B34,B3,0]: - c[B3,0] + c[B34,0] + 100 delta[B34,B3,0] <= 79.5
 PM[B34,B3,1]: - c[B3,1] + c[B34,1] + 9996 delta[B34,B3,1] <= 9978
 PM[B34,B4,0]: - c[B4,0] + c[B34,0] + 100 delta[B34,B4,0] <= 94.5
 PM[B34,B4,1]: - c[B4,1] + c[B34,1] + 10000 delta[B34,B4,1] <= 9982
 PM[B34,B5,0]: - c[B5,0] + c[B34,0] + 100 delta[B34,B5,0] <= 94.5
 PM[B34,B5,1]: - c[B5,1] + c[B34,1] + 10000 delta[B34,B5,1] <= 9985.5
 PM[B34,B6,0]: - c[B6,0] + c[B34,0] + 100 delta[B34,B6,0] <= 90
 PM[B34,B6,1]: - c[B6,1] + c[B34,1] + 10000 delta[B34,B6,1] <= 9984.5
 PM[B34,B7,0]: - c[B7,0] + c[B34,0] + 100 delta[B34,B7,0] <= 85
 PM[B34,B7,1]: - c[B7,1] + c[B34,1] + 10000 delta[B34,B7,1] <= 9984.5
 PM[B34,B8,0]: - c[B8,0] + c[B34,0] + 100 delta[B34,B8,0] <= 88
 PM[B34,B8,1]: - c[B8,1] + c[B34,1] + 9997 delta[B34,B8,1] <= 9977.5
 PM[B34,B9,0]: - c[B9,0] + c[B34,0] + 100 delta[B34,B9,0] <= 91
 PM[B34,B9,1]: - c[B9,1] + c[B34,1] + 10000 delta[B34,B9,1] <= 9984
 PM[B34,B10,0]: - c[B10,0] + c[B34,0] + 100 delta[B34,B10,0] <= 92.5
 PM[B34,B10,1]: - c[B10,1] + c[B34,1] + 10000 delta[B34,B10,1] <= 9983.5
 PM[B34,B11,0]: - c[B11,0] + c[B34,0] + 100 delta[B34,B11,0] <= 89
 PM[B34,B11,1]: - c[B11,1] + c[B34,1] + 9995 delta[B34,B11,1] <= 9977.5
 PM[B34,B12,0]: - c[B12,0] + c[B34,0] + 100 delta[B34,B12,0] <= 88
 PM[B34,B12,1]: - c[B12,1] + c[B34,1] + 9999 delta[B34,B12,1] <= 9981.5
 PM[B34,B13,0]: - c[B13,0] + c[B34,0] + 100 delta[B34,B13,0] <= 87.5
 PM[B34,B13,1]: - c[B13,1] + c[B34,1] + 10000 delta[B34,B13,1] <= 9984.5
 PM[B34,B14,0]: - c[B14,0] + c[B34,0] + 100 delta[B34,B14,0] <= 88.5
 PM[B34,B14,1]: - c[B14,1] + c[B34,1] + 9997 delta[B34,B14,1] <= 9981
 PM[B34,B15,0]: - c[B15,0] + c[B34,0] + 100 delta[B34,B15,0] <= 89.5
 PM[B34,B15,1]: - c[B15,1] + c[B34,1] + 9995 delta[B34,B15,1] <= 9972.5
 PM[B34,B16,0]: - c[B16,0] + c[B34,0] + 100 delta[B34,B16,0] <= 91
 PM[B34,B16,1]: - c[B16,1] + c[B34,1] + 9995 delta[B34,B16,1] <= 9979.5
 PM[B34,B17,0]: - c[B17,0] + c[B34,0] + 100 delta[B34,B17,0] <= 81.5
 PM[B34,B17,1]: - c[B17,1] + c[B34,1] + 9995 delta[B34,B17,1] <= 9963
 PM[B34,B18,0]: - c[B18,0] + c[B34,0] + 100 delta[B34,B18,0] <= 83.5
 PM[B34,B18,1]: - c[B18,1] + c[B34,1] + 10000 delta[B34,B18,1] <= 9985
 PM[B34,B19,0]: - c[B19,0] + c[B34,0] + 100 delta[B34,B19,0] <= 91
 PM[B34,B19,1]: - c[B19,1] + c[B34,1] + 10000 delta[B34,B19,1] <= 9983.5
 PM[B34,B20,0]: - c[B20,0] + c[B34,0] + 100 delta[B34,B20,0] <= 89.5
 PM[B34,B20,1]: - c[B20,1] + c[B34,1] + 9995 delta[B34,B20,1] <= 9973.5
 PM[B34,B21,0]: - c[B21,0] + c[B34,0] + 100 delta[B34,B21,0] <= 86.5
 PM[B34,B21,1]: - c[B21,1] + c[B34,1] + 9995 delta[B34,B21,1] <= 9978.5
 PM[B34,B22,0]: - c[B22,0] + c[B34,0] + 100 delta[B34,B22,0] <= 93
 PM[B34,B22,1]: - c[B22,1] + c[B34,1] + 9995 delta[B34,B22,1] <= 9968.5
 PM[B34,B23,0]: - c[B23,0] + c[B34,0] + 100 delta[B34,B23,0] <= 93.5
 PM[B34,B23,1]: - c[B23,1] + c[B34,1] + 10000 delta[B34,B23,1] <= 9980.5
 PM[B34,B24,0]: - c[B24,0] + c[B34,0] + 100 delta[B34,B24,0] <= 83.5
 PM[B34,B24,1]: - c[B24,1] + c[B34,1] + 9995 delta[B34,B24,1] <= 9966
 PM[B34,B25,0]: - c[B25,0] + c[B34,0] + 100 delta[B34,B25,0] <= 89.5
 PM[B34,B25,1]: - c[B25,1] + c[B34,1] + 10000 delta[B34,B25,1] <= 9984
 PM[B34,B26,0]: - c[B26,0] + c[B34,0] + 100 delta[B34,B26,0] <= 94
 PM[B34,B26,1]: - c[B26,1] + c[B34,1] + 10000 delta[B34,B26,1] <= 9985
 PM[B34,B27,0]: - c[B27,0] + c[B34,0] + 100 delta[B34,B27,0] <= 92.5
 PM[B34,B27,1]: - c[B27,1] + c[B34,1] + 9998 delta[B34,B27,1] <= 9977
 PM[B34,B28,0]: - c[B28,0] + c[B34,0] + 100 delta[B34,B28,0] <= 89
 PM[B34,B28,1]: - c[B28,1] + c[B34,1] + 10000 delta[B34,B28,1] <= 9985
 PM[B34,B29,0]: - c[B29,0] + c[B34,0] + 100 delta[B34,B29,0] <= 78.5
 PM[B34,B29,1]: - c[B29,1] + c[B34,1] + 9995 delta[B34,B29,1] <= 9974
 PM[B34,B30,0]: - c[B30,0] + c[B34,0] + 100 delta[B34,B30,0] <= 91.5
 PM[B34,B30,1]: - c[B30,1] + c[B34,1] + 10000 delta[B34,B30,1] <= 9978.5
 PM[B34,B31,0]: - c[B31,0] + c[B34,0] + 100 delta[B34,B31,0] <= 88.5
 PM[B34,B31,1]: - c[B31,1] + c[B34,1] + 10000 delta[B34,B31,1] <= 9980
 PM[B34,B32,0]: - c[B32,0] + c[B34,0] + 100 delta[B34,B32,0] <= 81.5
 PM[B34,B32,1]: - c[B32,1] + c[B34,1] + 9996 delta[B34,B32,1] <= 9980
 PM[B34,B33,0]: - c[B33,0] + c[B34,0] + 100 delta[B34,B33,0] <= 81
 PM[B34,B33,1]: - c[B33,1] + c[B34,1] + 10000 delta[B34,B33,1] <= 9985.5
 PM[B34,B35,0]: c[B34,0] - c[B35,0] + 100 delta[B34,B35,0] <= 82.5
 PM[B34,B35,1]: c[B34,1] - c[B35,1] + 9995 delta[B34,B35,1] <= 9975
 PM[B34,B36,0]: c[B34,0] - c[B36,0] + 100 delta[B34,B36,0] <= 92.5
 PM[B34,B36,1]: c[B34,1] - c[B36,1] + 10000 delta[B34,B36,1] <= 9983
 PM[B34,B37,0]: c[B34,0] - c[B37,0] + 100 delta[B34,B37,0] <= 89.5
 PM[B34,B37,1]: c[B34,1] - c[B37,1] + 10000 delta[B34,B37,1] <= 9985
 PM[B34,B38,0]: c[B34,0] - c[B38,0] + 100 delta[B34,B38,0] <= 81
 PM[B34,B38,1]: c[B34,1] - c[B38,1] + 10000 delta[B34,B38,1] <= 9982
 PM[B34,B39,0]: c[B34,0] - c[B39,0] + 100 delta[B34,B39,0] <= 78.5
 PM[B34,B39,1]: c[B34,1] - c[B39,1] + 10000 delta[B34,B39,1] <= 9978
 PM[B34,B40,0]: c[B34,0] - c[B40,0] + 100 delta[B34,B40,0] <= 83.5
 PM[B34,B40,1]: c[B34,1] - c[B40,1] + 10000 delta[B34,B40,1] <= 9985.5
 PM[B34,B41,0]: c[B34,0] - c[B41,0] + 100 delta[B34,B41,0] <= 93
 PM[B34,B41,1]: c[B34,1] - c[B41,1] + 10000 delta[B34,B41,1] <= 9983.5
 PM[B34,B42,0]: c[B34,0] - c[B42,0] + 100 delta[B34,B42,0] <= 90
 PM[B34,B42,1]: c[B34,1] - c[B42,1] + 9995 delta[B34,B42,1] <= 9969
 PM[B34,B43,0]: c[B34,0] - c[B43,0] + 100 delta[B34,B43,0] <= 84.5
 PM[B34,B43,1]: c[B34,1] - c[B43,1] + 9995 delta[B34,B43,1] <= 9978
 PM[B34,B44,0]: c[B34,0] - c[B44,0] + 100 delta[B34,B44,0] <= 89.5
 PM[B34,B44,1]: c[B34,1] - c[B44,1] + 9995 delta[B34,B44,1] <= 9978.5
 PM[B34,B45,0]: c[B34,0] - c[B45,0] + 100 delta[B34,B45,0] <= 92.5
 PM[B34,B45,1]: c[B34,1] - c[B45,1] + 9995 delta[B34,B45,1] <= 9971.5
 PM[B34,B46,0]: c[B34,0] - c[B46,0] + 100 delta[B34,B46,0] <= 85
 PM[B34,B46,1]: c[B34,1] - c[B46,1] + 10000 delta[B34,B46,1] <= 9985
 PM[B34,B47,0]: c[B34,0] - c[B47,0] + 100 delta[B34,B47,0] <= 91.5
 PM[B34,B47,1]: c[B34,1] - c[B47,1] + 10000 delta[B34,B47,1] <= 9983
 PM[B34,B48,0]: c[B34,0] - c[B48,0] + 100 delta[B34,B48,0] <= 90
 PM[B34,B48,1]: c[B34,1] - c[B48,1] + 10000 delta[B34,B48,1] <= 9984
 PM[B34,B49,0]: c[B34,0] - c[B49,0] + 100 delta[B34,B49,0] <= 91.5
 PM[B34,B49,1]: c[B34,1] - c[B49,1] + 9996 delta[B34,B49,1] <= 9981
 PM[B35,B0,0]: - c[B0,0] + c[B35,0] + 100 delta[B35,B0,0] <= 80.5
 PM[B35,B0,1]: - c[B0,1] + c[B35,1] + 10000 delta[B35,B0,1] <= 9984
 PM[B35,B1,0]: - c[B1,0] + c[B35,0] + 91 delta[B35,B1,0] <= 63
 PM[B35,B1,1]: - c[B1,1] + c[B35,1] + 10000 delta[B35,B1,1] <= 9989
 PM[B35,B2,0]: - c[B2,0] + c[B35,0] + 100 delta[B35,B2,0] <= 82
 PM[B35,B2,1]: - c[B2,1] + c[B35,1] + 10000 delta[B35,B2,1] <= 9990
 PM[B35,B3,0]: - c[B3,0] + c[B35,0] + 91 delta[B35,B3,0] <= 67
 PM[B35,B3,1]: - c[B3,1] + c[B35,1] + 10000 delta[B35,B3,1] <= 9985
 PM[B35,B4,0]: - c[B4,0] + c[B35,0] + 100 delta[B35,B4,0] <= 82
 PM[B35,B4,1]: - c[B4,1] + c[B35,1] + 10000 delta[B35,B4,1] <= 9989
 PM[B35,B5,0]: - c[B5,0] + c[B35,0] + 100 delta[B35,B5,0] <= 82
 PM[B35,B5,1]: - c[B5,1] + c[B35,1] + 10000 delta[B35,B5,1] <= 9992.5
 PM[B35,B6,0]: - c[B6,0] + c[B35,0] + 100 delta[B35,B6,0] <= 77.5
 PM[B35,B6,1]: - c[B6,1] + c[B35,1] + 10000 delta[B35,B6,1] <= 9991.5
 PM[B35,B7,0]: - c[B7,0] + c[B35,0] + 95 delta[B35,B7,0] <= 72.5
 PM[B35,B7,1]: - c[B7,1] + c[B35,1] + 10000 delta[B35,B7,1] <= 9991.5
 PM[B35,B8,0]: - c[B8,0] + c[B35,0] + 94 delta[B35,B8,0] <= 75.5
 PM[B35,B8,1]: - c[B8,1] + c[B35,1] + 10000 delta[B35,B8,1] <= 9984.5
 PM[B35,B9,0]: - c[B9,0] + c[B35,0] + 99 delta[B35,B9,0] <= 78.5
 PM[B35,B9,1]: - c[B9,1] + c[B35,1] + 10000 delta[B35,B9,1] <= 9991
 PM[B35,B10,0]: - c[B10,0] + c[B35,0] + 100 delta[B35,B10,0] <= 80
 PM[B35,B10,1]: - c[B10,1] + c[B35,1] + 10000 delta[B35,B10,1] <= 9990.5
 PM[B35,B11,0]: - c[B11,0] + c[B35,0] + 96 delta[B35,B11,0] <= 76.5
 PM[B35,B11,1]: - c[B11,1] + c[B35,1] + 10000 delta[B35,B11,1] <= 9984.5
 PM[B35,B12,0]: - c[B12,0] + c[B35,0] + 100 delta[B35,B12,0] <= 75.5
 PM[B35,B12,1]: - c[B12,1] + c[B35,1] + 10000 delta[B35,B12,1] <= 9988.5
 PM[B35,B13,0]: - c[B13,0] + c[B35,0] + 97 delta[B35,B13,0] <= 75
 PM[B35,B13,1]: - c[B13,1] + c[B35,1] + 10000 delta[B35,B13,1] <= 9991.5
 PM[B35,B14,0]: - c[B14,0] + c[B35,0] + 98 delta[B35,B14,0] <= 76
 PM[B35,B14,1]: - c[B14,1] + c[B35,1] + 10000 delta[B35,B14,1] <= 9988
 PM[B35,B15,0]: - c[B15,0] + c[B35,0] + 100 delta[B35,B15,0] <= 77
 PM[B35,B15,1]: - c[B15,1] + c[B35,1] + 10000 delta[B35,B15,1] <= 9979.5
 PM[B35,B16,0]: - c[B16,0] + c[B35,0] + 100 delta[B35,B16,0] <= 78.5
 PM[B35,B16,1]: - c[B16,1] + c[B35,1] + 10000 delta[B35,B16,1] <= 9986.5
 PM[B35,B17,0]: - c[B17,0] + c[B35,0] + 91 delta[B35,B17,0] <= 69
 PM[B35,B17,1]: - c[B17,1] + c[B35,1] + 10000 delta[B35,B17,1] <= 9970
 PM[B35,B18,0]: - c[B18,0] + c[B35,0] + 96 delta[B35,B18,0] <= 71
 PM[B35,B18,1]: - c[B18,1] + c[B35,1] + 10000 delta[B35,B18,1] <= 9992
 PM[B35,B19,0]: - c[B19,0] + c[B35,0] + 100 delta[B35,B19,0] <= 78.5
 PM[B35,B19,1]: - c[B19,1] + c[B35,1] + 10000 delta[B35,B19,1] <= 9990.5
 PM[B35,B20,0]: - c[B20,0] + c[B35,0] + 100 delta[B35,B20,0] <= 77
 PM[B35,B20,1]: - c[B20,1] + c[B35,1] + 10000 delta[B35,B20,1] <= 9980.5
 PM[B35,B21,0]: - c[B21,0] + c[B35,0] + 100 delta[B35,B21,0] <= 74
 PM[B35,B21,1]: - c[B21,1] + c[B35,1] + 10000 delta[B35,B21,1] <= 9985.5
 PM[B35,B22,0]: - c[B22,0] + c[B35,0] + 100 delta[B35,B22,0] <= 80.5
 PM[B35,B22,1]: - c[B22,1] + c[B35,1] + 10000 delta[B35,B22,1] <= 9975.5
 PM[B35,B23,0]: - c[B23,0] + c[B35,0] + 100 delta[B35,B23,0] <= 81
 PM[B35,B23,1]: - c[B23,1] + c[B35,1] + 10000 delta[B35,B23,1] <= 9987.5
 PM[B35,B24,0]: - c[B24,0] + c[B35,0] + 91 delta[B35,B24,0] <= 71
 PM[B35,B24,1]: - c[B24,1] + c[B35,1] + 10000 delta[B35,B24,1] <= 9973
 PM[B35,B25,0]: - c[B25,0] + c[B35,0] + 100 delta[B35,B25,0] <= 77
 PM[B35,B25,1]: - c[B25,1] + c[B35,1] + 10000 delta[B35,B25,1] <= 9991
 PM[B35,B26,0]: - c[B26,0] + c[B35,0] + 100 delta[B35,B26,0] <= 81.5
 PM[B35,B26,1]: - c[B26,1] + c[B35,1] + 10000 delta[B35,B26,1] <= 9992
 PM[B35,B27,0]: - c[B27,0] + c[B35,0] + 99 delta[B35,B27,0] <= 80
 PM[B35,B27,1]: - c[B27,1] + c[B35,1] + 10000 delta[B35,B27,1] <= 9984
 PM[B35,B28,0]: - c[B28,0] + c[B35,0] + 100 delta[B35,B28,0] <= 76.5
 PM[B35,B28,1]: - c[B28,1] + c[B35,1] + 10000 delta[B35,B28,1] <= 9992
 PM[B35,B29,0]: - c[B29,0] + c[B35,0] + 91 delta[B35,B29,0] <= 66
 PM[B35,B29,1]: - c[B29,1] + c[B35,1] + 10000 delta[B35,B29,1] <= 9981
 PM[B35,B30,0]: - c[B30,0] + c[B35,0] + 97 delta[B35,B30,0] <= 79
 PM[B35,B30,1]: - c[B30,1] + c[B35,1] + 10000 delta[B35,B30,1] <= 9985.5
 PM[B35,B31,0]: - c[B31,0] + c[B35,0] + 100 delta[B35,B31,0] <= 76
 PM[B35,B31,1]: - c[B31,1] + c[B35,1] + 10000 delta[B35,B31,1] <= 9987
 PM[B35,B32,0]: - c[B32,0] + c[B35,0] + 91 delta[B35,B32,0] <= 69
 PM[B35,B32,1]: - c[B32,1] + c[B35,1] + 10000 delta[B35,B32,1] <= 9987
 PM[B35,B33,0]: - c[B33,0] + c[B35,0] + 91 delta[B35,B33,0] <= 68.5
 PM[B35,B33,1]: - c[B33,1] + c[B35,1] + 10000 delta[B35,B33,1] <= 9992.5
 PM[B35,B34,0]: - c[B34,0] + c[B35,0] + 100 delta[B35,B34,0] <= 82.5
 PM[B35,B34,1]: - c[B34,1] + c[B35,1] + 10000 delta[B35,B34,1] <= 9989
 PM[B35,B36,0]: c[B35,0] - c[B36,0] + 100 delta[B35,B36,0] <= 80
 PM[B35,B36,1]: c[B35,1] - c[B36,1] + 10000 delta[B35,B36,1] <= 9990
 PM[B35,B37,0]: c[B35,0] - c[B37,0] + 95 delta[B35,B37,0] <= 77
 PM[B35,B37,1]: c[B35,1] - c[B37,1] + 10000 delta[B35,B37,1] <= 9992
 PM[B35,B38,0]: c[B35,0] - c[B38,0] + 92 delta[B35,B38,0] <= 68.5
 PM[B35,B38,1]: c[B35,1] - c[B38,1] + 10000 delta[B35,B38,1] <= 9989
 PM[B35,B39,0]: c[B35,0] - c[B39,0] + 91 delta[B35,B39,0] <= 66
 PM[B35,B39,1]: c[B35,1] - c[B39,1] + 10000 delta[B35,B39,1] <= 9985
 PM[B35,B40,0]: c[B35,0] - c[B40,0] + 91 delta[B35,B40,0] <= 71
 PM[B35,B40,1]: c[B35,1] - c[B40,1] + 10000 delta[B35,B40,1] <= 9992.5
 PM[B35,B41,0]: c[B35,0] - c[B41,0] + 100 delta[B35,B41,0] <= 80.5
 PM[B35,B41,1]: c[B35,1] - c[B41,1] + 10000 delta[B35,B41,1] <= 9990.5
 PM[B35,B42,0]: c[B35,0] - c[B42,0] + 100 delta[B35,B42,0] <= 77.5
 PM[B35,B42,1]: c[B35,1] - c[B42,1] + 10000 delta[B35,B42,1] <= 9976
 PM[B35,B43,0]: c[B35,0] - c[B43,0] + 95 delta[B35,B43,0] <= 72
 PM[B35,B43,1]: c[B35,1] - c[B43,1] + 10000 delta[B35,B43,1] <= 9985
 PM[B35,B44,0]: c[B35,0] - c[B44,0] + 100 delta[B35,B44,0] <= 77
 PM[B35,B44,1]: c[B35,1] - c[B44,1] + 10000 delta[B35,B44,1] <= 9985.5
 PM[B35,B45,0]: c[B35,0] - c[B45,0] + 100 delta[B35,B45,0] <= 80
 PM[B35,B45,1]: c[B35,1] - c[B45,1] + 10000 delta[B35,B45,1] <= 9978.5
 PM[B35,B46,0]: c[B35,0] - c[B46,0] + 92 delta[B35,B46,0] <= 72.5
 PM[B35,B46,1]: c[B35,1] - c[B46,1] + 10000 delta[B35,B46,1] <= 9992
 PM[B35,B47,0]: c[B35,0] - c[B47,0] + 100 delta[B35,B47,0] <= 79
 PM[B35,B47,1]: c[B35,1] - c[B47,1] + 10000 delta[B35,B47,1] <= 9990
 PM[B35,B48,0]: c[B35,0] - c[B48,0] + 100 delta[B35,B48,0] <= 77.5
 PM[B35,B48,1]: c[B35,1] - c[B48,1] + 10000 delta[B35,B48,1] <= 9991
 PM[B35,B49,0]: c[B35,0] - c[B49,0] + 100 delta[B35,B49,0] <= 79
 PM[B35,B49,1]: c[B35,1] - c[B49,1] + 10000 delta[B35,B49,1] <= 9988
 PM[B36,B0,0]: - c[B0,0] + c[B36,0] + 100 delta[B36,B0,0] <= 88.5
 PM[B36,B0,1]: - c[B0,1] + c[B36,1] + 9995 delta[B36,B0,1] <= 9978
 PM[B36,B1,0]: - c[B1,0] + c[B36,0] + 98 delta[B36,B1,0] <= 71
 PM[B36,B1,1]: - c[B1,1] + c[B36,1] + 10000 delta[B36,B1,1] <= 9983
 PM[B36,B2,0]: - c[B2,0] + c[B36,0] + 100 delta[B36,B2,0] <= 90
 PM[B36,B2,1]: - c[B2,1] + c[B36,1] + 10000 delta[B36,B2,1] <= 9984
 PM[B36,B3,0]: - c[B3,0] + c[B36,0] + 98 delta[B36,B3,0] <= 75
 PM[B36,B3,1]: - c[B3,1] + c[B36,1] + 9996 delta[B36,B3,1] <= 9979
 PM[B36,B4,0]: - c[B4,0] + c[B36,0] + 100 delta[B36,B4,0] <= 90
 PM[B36,B4,1]: - c[B4,1] + c[B36,1] + 10000 delta[B36,B4,1] <= 9983
 PM[B36,B5,0]: - c[B5,0] + c[B36,0] + 100 delta[B36,B5,0] <= 90
 PM[B36,B5,1]: - c[B5,1] + c[B36,1] + 10000 delta[B36,B5,1] <= 9986.5
 PM[B36,B6,0]: - c[B6,0] + c[B36,0] + 100 delta[B36,B6,0] <= 85.5
 PM[B36,B6,1]: - c[B6,1] + c[B36,1] + 10000 delta[B36,B6,1] <= 9985.5
 PM[B36,B7,0]: - c[B7,0] + c[B36,0] + 98 delta[B36,B7,0] <= 80.5
 PM[B36,B7,1]: - c[B7,1] + c[B36,1] + 10000 delta[B36,B7,1] <= 9985.5
 PM[B36,B8,0]: - c[B8,0] + c[B36,0] + 98 delta[B36,B8,0] <= 83.5
 PM[B36,B8,1]: - c[B8,1] + c[B36,1] + 9997 delta[B36,B8,1] <= 9978.5
 PM[B36,B9,0]: - c[B9,0] + c[B36,0] + 99 delta[B36,B9,0] <= 86.5
 PM[B36,B9,1]: - c[B9,1] + c[B36,1] + 10000 delta[B36,B9,1] <= 9985
 PM[B36,B10,0]: - c[B10,0] + c[B36,0] + 100 delta[B36,B10,0] <= 88
 PM[B36,B10,1]: - c[B10,1] + c[B36,1] + 10000 delta[B36,B10,1] <= 9984.5
 PM[B36,B11,0]: - c[B11,0] + c[B36,0] + 98 delta[B36,B11,0] <= 84.5
 PM[B36,B11,1]: - c[B11,1] + c[B36,1] + 9995 delta[B36,B11,1] <= 9978.5
 PM[B36,B12,0]: - c[B12,0] + c[B36,0] + 100 delta[B36,B12,0] <= 83.5
 PM[B36,B12,1]: - c[B12,1] + c[B36,1] + 9999 delta[B36,B12,1] <= 9982.5
 PM[B36,B13,0]: - c[B13,0] + c[B36,0] + 98 delta[B36,B13,0] <= 83
 PM[B36,B13,1]: - c[B13,1] + c[B36,1] + 10000 delta[B36,B13,1] <= 9985.5
 PM[B36,B14,0]: - c[B14,0] + c[B36,0] + 98 delta[B36,B14,0] <= 84
 PM[B36,B14,1]: - c[B14,1] + c[B36,1] + 9997 delta[B36,B14,1] <= 9982
 PM[B36,B15,0]: - c[B15,0] + c[B36,0] + 100 delta[B36,B15,0] <= 85
 PM[B36,B15,1]: - c[B15,1] + c[B36,1] + 9995 delta[B36,B15,1] <= 9973.5
 PM[B36,B16,0]: - c[B16,0] + c[B36,0] + 100 delta[B36,B16,0] <= 86.5
 PM[B36,B16,1]: - c[B16,1] + c[B36,1] + 9995 delta[B36,B16,1] <= 9980.5
 PM[B36,B17,0]: - c[B17,0] + c[B36,0] + 98 delta[B36,B17,0] <= 77
 PM[B36,B17,1]: - c[B17,1] + c[B36,1] + 9995 delta[B36,B17,1] <= 9964
 PM[B36,B18,0]: - c[B18,0] + c[B36,0] + 98 delta[B36,B18,0] <= 79
 PM[B36,B18,1]: - c[B18,1] + c[B36,1] + 10000 delta[B36,B18,1] <= 9986
 PM[B36,B19,0]: - c[B19,0] + c[B36,0] + 100 delta[B36,B19,0] <= 86.5
 PM[B36,B19,1]: - c[B19,1] + c[B36,1] + 10000 delta[B36,B19,1] <= 9984.5
 PM[B36,B20,0]: - c[B20,0] + c[B36,0] + 100 delta[B36,B20,0] <= 85
 PM[B36,B20,1]: - c[B20,1] + c[B36,1] + 9995 delta[B36,B20,1] <= 9974.5
 PM[B36,B21,0]: - c[B21,0] + c[B36,0] + 100 delta[B36,B21,0] <= 82
 PM[B36,B21,1]: - c[B21,1] + c[B36,1] + 9995 delta[B36,B21,1] <= 9979.5
 PM[B36,B22,0]: - c[B22,0] + c[B36,0] + 100 delta[B36,B22,0] <= 88.5
 PM[B36,B22,1]: - c[B22,1] + c[B36,1] + 9995 delta[B36,B22,1] <= 9969.5
 PM[B36,B23,0]: - c[B23,0] + c[B36,0] + 100 delta[B36,B23,0] <= 89
 PM[B36,B23,1]: - c[B23,1] + c[B36,1] + 10000 delta[B36,B23,1] <= 9981.5
 PM[B36,B24,0]: - c[B24,0] + c[B36,0] + 98 delta[B36,B24,0] <= 79
 PM[B36,B24,1]: - c[B24,1] + c[B36,1] + 9995 delta[B36,B24,1] <= 9967
 PM[B36,B25,0]: - c[B25,0] + c[B36,0] + 100 delta[B36,B25,0] <= 85
 PM[B36,B25,1]: - c[B25,1] + c[B36,1] + 10000 delta[B36,B25,1] <= 9985
 PM[B36,B26,0]: - c[B26,0] + c[B36,0] + 100 delta[B36,B26,0] <= 89.5
 PM[B36,B26,1]: - c[B26,1] + c[B36,1] + 10000 delta[B36,B26,1] <= 9986
 PM[B36,B27,0]: - c[B27,0] + c[B36,0] + 99 delta[B36,B27,0] <= 88
 PM[B36,B27,1]: - c[B27,1] + c[B36,1] + 9998 delta[B36,B27,1] <= 9978
 PM[B36,B28,0]: - c[B28,0] + c[B36,0] + 100 delta[B36,B28,0] <= 84.5
 PM[B36,B28,1]: - c[B28,1] + c[B36,1] + 10000 delta[B36,B28,1] <= 9986
 PM[B36,B29,0]: - c[B29,0] + c[B36,0] + 98 delta[B36,B29,0] <= 74
 PM[B36,B29,1]: - c[B29,1] + c[B36,1] + 9995 delta[B36,B29,1] <= 9975
 PM[B36,B30,0]: - c[B30,0] + c[B36,0] + 98 delta[B36,B30,0] <= 87
 PM[B36,B30,1]: - c[B30,1] + c[B36,1] + 10000 delta[B36,B30,1] <= 9979.5
 PM[B36,B31,0]: - c[B31,0] + c[B36,0] + 100 delta[B36,B31,0] <= 84
 PM[B36,B31,1]: - c[B31,1] + c[B36,1] + 10000 delta[B36,B31,1] <= 9981
 PM[B36,B32,0]: - c[B32,0] + c[B36,0] + 98 delta[B36,B32,0] <= 77
 PM[B36,B32,1]: - c[B32,1] + c[B36,1] + 9996 delta[B36,B32,1] <= 9981
 PM[B36,B33,0]: - c[B33,0] + c[B36,0] + 98 delta[B36,B33,0] <= 76.5
 PM[B36,B33,1]: - c[B33,1] + c[B36,1] + 10000 delta[B36,B33,1] <= 9986.5
 PM[B36,B34,0]: - c[B34,0] + c[B36,0] + 100 delta[B36,B34,0] <= 90.5
 PM[B36,B34,1]: - c[B34,1] + c[B36,1] + 10000 delta[B36,B34,1] <= 9983
 PM[B36,B35,0]: - c[B35,0] + c[B36,0] + 98 delta[B36,B35,0] <= 78
 PM[B36,B35,1]: - c[B35,1] + c[B36,1] + 9995 delta[B36,B35,1] <= 9976
 PM[B36,B37,0]: c[B36,0] - c[B37,0] + 98 delta[B36,B37,0] <= 85
 PM[B36,B37,1]: c[B36,1] - c[B37,1] + 10000 delta[B36,B37,1] <= 9986
 PM[B36,B38,0]: c[B36,0] - c[B38,0] + 98 delta[B36,B38,0] <= 76.5
 PM[B36,B38,1]: c[B36,1] - c[B38,1] + 10000 delta[B36,B38,1] <= 9983
 PM[B36,B39,0]: c[B36,0] - c[B39,0] + 98 delta[B36,B39,0] <= 74
 PM[B36,B39,1]: c[B36,1] - c[B39,1] + 10000 delta[B36,B39,1] <= 9979
 PM[B36,B40,0]: c[B36,0] - c[B40,0] + 98 delta[B36,B40,0] <= 79
 PM[B36,B40,1]: c[B36,1] - c[B40,1] + 10000 delta[B36,B40,1] <= 9986.5
 PM[B36,B41,0]: c[B36,0] - c[B41,0] + 100 delta[B36,B41,0] <= 88.5
 PM[B36,B41,1]: c[B36,1] - c[B41,1] + 10000 delta[B36,B41,1] <= 9984.5
 PM[B36,B42,0]: c[B36,0] - c[B42,0] + 100 delta[B36,B42,0] <= 85.5
 PM[B36,B42,1]: c[B36,1] - c[B42,1] + 9995 delta[B36,B42,1] <= 9970
 PM[B36,B43,0]: c[B36,0] - c[B43,0] + 98 delta[B36,B43,0] <= 80
 PM[B36,B43,1]: c[B36,1] - c[B43,1] + 9995 delta[B36,B43,1] <= 9979
 PM[B36,B44,0]: c[B36,0] - c[B44,0] + 100 delta[B36,B44,0] <= 85
 PM[B36,B44,1]: c[B36,1] - c[B44,1] + 9995 delta[B36,B44,1] <= 9979.5
 PM[B36,B45,0]: c[B36,0] - c[B45,0] + 100 delta[B36,B45,0] <= 88
 PM[B36,B45,1]: c[B36,1] - c[B45,1] + 9995 delta[B36,B45,1] <= 9972.5
 PM[B36,B46,0]: c[B36,0] - c[B46,0] + 98 delta[B36,B46,0] <= 80.5
 PM[B36,B46,1]: c[B36,1] - c[B46,1] + 10000 delta[B36,B46,1] <= 9986
 PM[B36,B47,0]: c[B36,0] - c[B47,0] + 100 delta[B36,B47,0] <= 87
 PM[B36,B47,1]: c[B36,1] - c[B47,1] + 10000 delta[B36,B47,1] <= 9984
 PM[B36,B48,0]: c[B36,0] - c[B48,0] + 100 delta[B36,B48,0] <= 85.5
 PM[B36,B48,1]: c[B36,1] - c[B48,1] + 10000 delta[B36,B48,1] <= 9985
 PM[B36,B49,0]: c[B36,0] - c[B49,0] + 100 delta[B36,B49,0] <= 87
 PM[B36,B49,1]: c[B36,1] - c[B49,1] + 9996 delta[B36,B49,1] <= 9982
 PM[B37,B0,0]: - c[B0,0] + c[B37,0] + 100 delta[B37,B0,0] <= 88.5
 PM[B37,B0,1]: - c[B0,1] + c[B37,1] + 9997 delta[B37,B0,1] <= 9982
 PM[B37,B1,0]: - c[B1,0] + c[B37,0] + 96 delta[B37,B1,0] <= 71
 PM[B37,B1,1]: - c[B1,1] + c[B37,1] + 10000 delta[B37,B1,1] <= 9987
 PM[B37,B2,0]: - c[B2,0] + c[B37,0] + 100 delta[B37,B2,0] <= 90
 PM[B37,B2,1]: - c[B2,1] + c[B37,1] + 10000 delta[B37,B2,1] <= 9988
 PM[B37,B3,0]: - c[B3,0] + c[B37,0] + 96 delta[B37,B3,0] <= 75
 PM[B37,B3,1]: - c[B3,1] + c[B37,1] + 9997 delta[B37,B3,1] <= 9983
 PM[B37,B4,0]: - c[B4,0] + c[B37,0] + 100 delta[B37,B4,0] <= 90
 PM[B37,B4,1]: - c[B4,1] + c[B37,1] + 10000 delta[B37,B4,1] <= 9987
 PM[B37,B5,0]: - c[B5,0] + c[B37,0] + 100 delta[B37,B5,0] <= 90
 PM[B37,B5,1]: - c[B5,1] + c[B37,1] + 10000 delta[B37,B5,1] <= 9990.5
 PM[B37,B6,0]: - c[B6,0] + c[B37,0] + 100 delta[B37,B6,0] <= 85.5
 PM[B37,B6,1]: - c[B6,1] + c[B37,1] + 10000 delta[B37,B6,1] <= 9989.5
 PM[B37,B7,0]: - c[B7,0] + c[B37,0] + 96 delta[B37,B7,0] <= 80.5
 PM[B37,B7,1]: - c[B7,1] + c[B37,1] + 10000 delta[B37,B7,1] <= 9989.5
 PM[B37,B8,0]: - c[B8,0] + c[B37,0] + 96 delta[B37,B8,0] <= 83.5
 PM[B37,B8,1]: - c[B8,1] + c[B37,1] + 9997 delta[B37,B8,1] <= 9982.5
 PM[B37,B9,0]: - c[B9,0] + c[B37,0] + 99 delta[B37,B9,0] <= 86.5
 PM[B37,B9,1]: - c[B9,1] + c[B37,1] + 10000 delta[B37,B9,1] <= 9989
 PM[B37,B10,0]: - c[B10,0] + c[B37,0] + 100 delta[B37,B10,0] <= 88
 PM[B37,B10,1]: - c[B10,1] + c[B37,1] + 10000 delta[B37,B10,1] <= 9988.5
 PM[B37,B11,0]: - c[B11,0] + c[B37,0] + 96 delta[B37,B11,0] <= 84.5
 PM[B37,B11,1]: - c[B11,1] + c[B37,1] + 9997 delta[B37,B11,1] <= 9982.5
 PM[B37,B12,0]: - c[B12,0] + c[B37,0] + 100 delta[B37,B12,0] <= 83.5
 PM[B37,B12,1]: - c[B12,1] + c[B37,1] + 9999 delta[B37,B12,1] <= 9986.5
 PM[B37,B13,0]: - c[B13,0] + c[B37,0] + 97 delta[B37,B13,0] <= 83
 PM[B37,B13,1]: - c[B13,1] + c[B37,1] + 10000 delta[B37,B13,1] <= 9989.5
 PM[B37,B14,0]: - c[B14,0] + c[B37,0] + 98 delta[B37,B14,0] <= 84
 PM[B37,B14,1]: - c[B14,1] + c[B37,1] + 9997 delta[B37,B14,1] <= 9986
 PM[B37,B15,0]: - c[B15,0] + c[B37,0] + 100 delta[B37,B15,0] <= 85
 PM[B37,B15,1]: - c[B15,1] + c[B37,1] + 9997 delta[B37,B15,1] <= 9977.5
 PM[B37,B16,0]: - c[B16,0] + c[B37,0] + 100 delta[B37,B16,0] <= 86.5
 PM[B37,B16,1]: - c[B16,1] + c[B37,1] + 9997 delta[B37,B16,1] <= 9984.5
 PM[B37,B17,0]: - c[B17,0] + c[B37,0] + 96 delta[B37,B17,0] <= 77
 PM[B37,B17,1]: - c[B17,1] + c[B37,1] + 9997 delta[B37,B17,1] <= 9968
 PM[B37,B18,0]: - c[B18,0] + c[B37,0] + 96 delta[B37,B18,0] <= 79
 PM[B37,B18,1]: - c[B18,1] + c[B37,1] + 10000 delta[B37,B18,1] <= 9990
 PM[B37,B19,0]: - c[B19,0] + c[B37,0] + 100 delta[B37,B19,0] <= 86.5
 PM[B37,B19,1]: - c[B19,1] + c[B37,1] + 10000 delta[B37,B19,1] <= 9988.5
 PM[B37,B20,0]: - c[B20,0] + c[B37,0] + 100 delta[B37,B20,0] <= 85
 PM[B37,B20,1]: - c[B20,1] + c[B37,1] + 9997 delta[B37,B20,1] <= 9978.5
 PM[B37,B21,0]: - c[B21,0] + c[B37,0] + 100 delta[B37,B21,0] <= 82
 PM[B37,B21,1]: - c[B21,1] + c[B37,1] + 9997 delta[B37,B21,1] <= 9983.5
 PM[B37,B22,0]: - c[B22,0] + c[B37,0] + 100 delta[B37,B22,0] <= 88.5
 PM[B37,B22,1]: - c[B22,1] + c[B37,1] + 9997 delta[B37,B22,1] <= 9973.5
 PM[B37,B23,0]: - c[B23,0] + c[B37,0] + 100 delta[B37,B23,0] <= 89
 PM[B37,B23,1]: - c[B23,1] + c[B37,1] + 10000 delta[B37,B23,1] <= 9985.5
 PM[B37,B24,0]: - c[B24,0] + c[B37,0] + 96 delta[B37,B24,0] <= 79
 PM[B37,B24,1]: - c[B24,1] + c[B37,1] + 9997 delta[B37,B24,1] <= 9971
 PM[B37,B25,0]: - c[B25,0] + c[B37,0] + 100 delta[B37,B25,0] <= 85
 PM[B37,B25,1]: - c[B25,1] + c[B37,1] + 10000 delta[B37,B25,1] <= 9989
 PM[B37,B26,0]: - c[B26,0] + c[B37,0] + 100 delta[B37,B26,0] <= 89.5
 PM[B37,B26,1]: - c[B26,1] + c[B37,1] + 10000 delta[B37,B26,1] <= 9990
 PM[B37,B27,0]: - c[B27,0] + c[B37,0] + 99 delta[B37,B27,0] <= 88
 PM[B37,B27,1]: - c[B27,1] + c[B37,1] + 9998 delta[B37,B27,1] <= 9982
 PM[B37,B28,0]: - c[B28,0] + c[B37,0] + 100 delta[B37,B28,0] <= 84.5
 PM[B37,B28,1]: - c[B28,1] + c[B37,1] + 10000 delta[B37,B28,1] <= 9990
 PM[B37,B29,0]: - c[B29,0] + c[B37,0] + 96 delta[B37,B29,0] <= 74
 PM[B37,B29,1]: - c[B29,1] + c[B37,1] + 9997 delta[B37,B29,1] <= 9979
 PM[B37,B30,0]: - c[B30,0] + c[B37,0] + 97 delta[B37,B30,0] <= 87
 PM[B37,B30,1]: - c[B30,1] + c[B37,1] + 10000 delta[B37,B30,1] <= 9983.5
 PM[B37,B31,0]: - c[B31,0] + c[B37,0] + 100 delta[B37,B31,0] <= 84
 PM[B37,B31,1]: - c[B31,1] + c[B37,1] + 10000 delta[B37,B31,1] <= 9985
 PM[B37,B32,0]: - c[B32,0] + c[B37,0] + 96 delta[B37,B32,0] <= 77
 PM[B37,B32,1]: - c[B32,1] + c[B37,1] + 9997 delta[B37,B32,1] <= 9985
 PM[B37,B33,0]: - c[B33,0] + c[B37,0] + 96 delta[B37,B33,0] <= 76.5
 PM[B37,B33,1]: - c[B33,1] + c[B37,1] + 10000 delta[B37,B33,1] <= 9990.5
 PM[B37,B34,0]: - c[B34,0] + c[B37,0] + 100 delta[B37,B34,0] <= 90.5
 PM[B37,B34,1]: - c[B34,1] + c[B37,1] + 10000 delta[B37,B34,1] <= 9987
 PM[B37,B35,0]: - c[B35,0] + c[B37,0] + 96 delta[B37,B35,0] <= 78
 PM[B37,B35,1]: - c[B35,1] + c[B37,1] + 9997 delta[B37,B35,1] <= 9980
 PM[B37,B36,0]: - c[B36,0] + c[B37,0] + 100 delta[B37,B36,0] <= 88
 PM[B37,B36,1]: - c[B36,1] + c[B37,1] + 10000 delta[B37,B36,1] <= 9988
 PM[B37,B38,0]: c[B37,0] - c[B38,0] + 96 delta[B37,B38,0] <= 76.5
 PM[B37,B38,1]: c[B37,1] - c[B38,1] + 10000 delta[B37,B38,1] <= 9987
 PM[B37,B39,0]: c[B37,0] - c[B39,0] + 96 delta[B37,B39,0] <= 74
 PM[B37,B39,1]: c[B37,1] - c[B39,1] + 10000 delta[B37,B39,1] <= 9983
 PM[B37,B40,0]: c[B37,0] - c[B40,0] + 96 delta[B37,B40,0] <= 79
 PM[B37,B40,1]: c[B37,1] - c[B40,1] + 10000 delta[B37,B40,1] <= 9990.5
 PM[B37,B41,0]: c[B37,0] - c[B41,0] + 100 delta[B37,B41,0] <= 88.5
 PM[B37,B41,1]: c[B37,1] - c[B41,1] + 10000 delta[B37,B41,1] <= 9988.5
 PM[B37,B42,0]: c[B37,0] - c[B42,0] + 100 delta[B37,B42,0] <= 85.5
 PM[B37,B42,1]: c[B37,1] - c[B42,1] + 9997 delta[B37,B42,1] <= 9974
 PM[B37,B43,0]: c[B37,0] - c[B43,0] + 96 delta[B37,B43,0] <= 80
 PM[B37,B43,1]: c[B37,1] - c[B43,1] + 9997 delta[B37,B43,1] <= 9983
 PM[B37,B44,0]: c[B37,0] - c[B44,0] + 100 delta[B37,B44,0] <= 85
 PM[B37,B44,1]: c[B37,1] - c[B44,1] + 9997 delta[B37,B44,1] <= 9983.5
 PM[B37,B45,0]: c[B37,0] - c[B45,0] + 100 delta[B37,B45,0] <= 88
 PM[B37,B45,1]: c[B37,1] - c[B45,1] + 9997 delta[B37,B45,1] <= 9976.5
 PM[B37,B46,0]: c[B37,0] - c[B46,0] + 96 delta[B37,B46,0] <= 80.5
 PM[B37,B46,1]: c[B37,1] - c[B46,1] + 10000 delta[B37,B46,1] <= 9990
 PM[B37,B47,0]: c[B37,0] - c[B47,0] + 100 delta[B37,B47,0] <= 87
 PM[B37,B47,1]: c[B37,1] - c[B47,1] + 10000 delta[B37,B47,1] <= 9988
 PM[B37,B48,0]: c[B37,0] - c[B48,0] + 100 delta[B37,B48,0] <= 85.5
 PM[B37,B48,1]: c[B37,1] - c[B48,1] + 10000 delta[B37,B48,1] <= 9989
 PM[B37,B49,0]: c[B37,0] - c[B49,0] + 100 delta[B37,B49,0] <= 87
 PM[B37,B49,1]: c[B37,1] - c[B49,1] + 9997 delta[B37,B49,1] <= 9986
 PM[B38,B0,0]: - c[B0,0] + c[B38,0] + 100 delta[B38,B0,0] <= 84
 PM[B38,B0,1]: - c[B0,1] + c[B38,1] + 10000 delta[B38,B0,1] <= 9982
 PM[B38,B1,0]: - c[B1,0] + c[B38,0] + 97 delta[B38,B1,0] <= 66.5
 PM[B38,B1,1]: - c[B1,1] + c[B38,1] + 10000 delta[B38,B1,1] <= 9987
 PM[B38,B2,0]: - c[B2,0] + c[B38,0] + 100 delta[B38,B2,0] <= 85.5
 PM[B38,B2,1]: - c[B2,1] + c[B38,1] + 10000 delta[B38,B2,1] <= 9988
 PM[B38,B3,0]: - c[B3,0] + c[B38,0] + 97 delta[B38,B3,0] <= 70.5
 PM[B38,B3,1]: - c[B3,1] + c[B38,1] + 10000 delta[B38,B3,1] <= 9983
 PM[B38,B4,0]: - c[B4,0] + c[B38,0] + 100 delta[B38,B4,0] <= 85.5
 PM[B38,B4,1]: - c[B4,1] + c[B38,1] + 10000 delta[B38,B4,1] <= 9987
 PM[B38,B5,0]: - c[B5,0] + c[B38,0] + 100 delta[B38,B5,0] <= 85.5
 PM[B38,B5,1]: - c[B5,1] + c[B38,1] + 10000 delta[B38,B5,1] <= 9990.5
 PM[B38,B6,0]: - c[B6,0] + c[B38,0] + 100 delta[B38,B6,0] <= 81
 PM[B38,B6,1]: - c[B6,1] + c[B38,1] + 10000 delta[B38,B6,1] <= 9989.5
 PM[B38,B7,0]: - c[B7,0] + c[B38,0] + 97 delta[B38,B7,0] <= 76
 PM[B38,B7,1]: - c[B7,1] + c[B38,1] + 10000 delta[B38,B7,1] <= 9989.5
 PM[B38,B8,0]: - c[B8,0] + c[B38,0] + 97 delta[B38,B8,0] <= 79
 PM[B38,B8,1]: - c[B8,1] + c[B38,1] + 10000 delta[B38,B8,1] <= 9982.5
 PM[B38,B9,0]: - c[B9,0] + c[B38,0] + 99 delta[B38,B9,0] <= 82
 PM[B38,B9,1]: - c[B9,1] + c[B38,1] + 10000 delta[B38,B9,1] <= 9989
 PM[B38,B10,0]: - c[B10,0] + c[B38,0] + 100 delta[B38,B10,0] <= 83.5
 PM[B38,B10,1]: - c[B10,1] + c[B38,1] + 10000 delta[B38,B10,1] <= 9988.5
 PM[B38,B11,0]: - c[B11,0] + c[B38,0] + 97 delta[B38,B11,0] <= 80
 PM[B38,B11,1]: - c[B11,1] + c[B38,1] + 10000 delta[B38,B11,1] <= 9982.5
 PM[B38,B12,0]: - c[B12,0] + c[B38,0] + 100 delta[B38,B12,0] <= 79
 PM[B38,B12,1]: - c[B12,1] + c[B38,1] + 10000 delta[B38,B12,1] <= 9986.5
 PM[B38,B13,0]: - c[B13,0] + c[B38,0] + 97 delta[B38,B13,0] <= 78.5
 PM[B38,B13,1]: - c[B13,1] + c[B38,1] + 10000 delta[B38,B13,1] <= 9989.5
 PM[B38,B14,0]: - c[B14,0] + c[B38,0] + 98 delta[B38,B14,0] <= 79.5
 PM[B38,B14,1]: - c[B14,1] + c[B38,1] + 10000 delta[B38,B14,1] <= 9986
 PM[B38,B15,0]: - c[B15,0] + c[B38,0] + 100 delta[B38,B15,0] <= 80.5
 PM[B38,B15,1]: - c[B15,1] + c[B38,1] + 10000 delta[B38,B15,1] <= 9977.5
 PM[B38,B16,0]: - c[B16,0] + c[B38,0] + 100 delta[B38,B16,0] <= 82
 PM[B38,B16,1]: - c[B16,1] + c[B38,1] + 10000 delta[B38,B16,1] <= 9984.5
 PM[B38,B17,0]: - c[B17,0] + c[B38,0] + 97 delta[B38,B17,0] <= 72.5
 PM[B38,B17,1]: - c[B17,1] + c[B38,1] + 10000 delta[B38,B17,1] <= 9968
 PM[B38,B18,0]: - c[B18,0] + c[B38,0] + 97 delta[B38,B18,0] <= 74.5
 PM[B38,B18,1]: - c[B18,1] + c[B38,1] + 10000 delta[B38,B18,1] <= 9990
 PM[B38,B19,0]: - c[B19,0] + c[B38,0] + 100 delta[B38,B19,0] <= 82
 PM[B38,B19,1]: - c[B19,1] + c[B38,1] + 10000 delta[B38,B19,1] <= 9988.5
 PM[B38,B20,0]: - c[B20,0] + c[B38,0] + 100 delta[B38,B20,0] <= 80.5
 PM[B38,B20,1]: - c[B20,1] + c[B38,1] + 10000 delta[B38,B20,1] <= 9978.5
 PM[B38,B21,0]: - c[B21,0] + c[B38,0] + 100 delta[B38,B21,0] <= 77.5
 PM[B38,B21,1]: - c[B21,1] + c[B38,1] + 10000 delta[B38,B21,1] <= 9983.5
 PM[B38,B22,0]: - c[B22,0] + c[B38,0] + 100 delta[B38,B22,0] <= 84
 PM[B38,B22,1]: - c[B22,1] + c[B38,1] + 10000 delta[B38,B22,1] <= 9973.5
 PM[B38,B23,0]: - c[B23,0] + c[B38,0] + 100 delta[B38,B23,0] <= 84.5
 PM[B38,B23,1]: - c[B23,1] + c[B38,1] + 10000 delta[B38,B23,1] <= 9985.5
 PM[B38,B24,0]: - c[B24,0] + c[B38,0] + 97 delta[B38,B24,0] <= 74.5
 PM[B38,B24,1]: - c[B24,1] + c[B38,1] + 10000 delta[B38,B24,1] <= 9971
 PM[B38,B25,0]: - c[B25,0] + c[B38,0] + 100 delta[B38,B25,0] <= 80.5
 PM[B38,B25,1]: - c[B25,1] + c[B38,1] + 10000 delta[B38,B25,1] <= 9989
 PM[B38,B26,0]: - c[B26,0] + c[B38,0] + 100 delta[B38,B26,0] <= 85
 PM[B38,B26,1]: - c[B26,1] + c[B38,1] + 10000 delta[B38,B26,1] <= 9990
 PM[B38,B27,0]: - c[B27,0] + c[B38,0] + 99 delta[B38,B27,0] <= 83.5
 PM[B38,B27,1]: - c[B27,1] + c[B38,1] + 10000 delta[B38,B27,1] <= 9982
 PM[B38,B28,0]: - c[B28,0] + c[B38,0] + 100 delta[B38,B28,0] <= 80
 PM[B38,B28,1]: - c[B28,1] + c[B38,1] + 10000 delta[B38,B28,1] <= 9990
 PM[B38,B29,0]: - c[B29,0] + c[B38,0] + 97 delta[B38,B29,0] <= 69.5
 PM[B38,B29,1]: - c[B29,1] + c[B38,1] + 10000 delta[B38,B29,1] <= 9979
 PM[B38,B30,0]: - c[B30,0] + c[B38,0] + 97 delta[B38,B30,0] <= 82.5
 PM[B38,B30,1]: - c[B30,1] + c[B38,1] + 10000 delta[B38,B30,1] <= 9983.5
 PM[B38,B31,0]: - c[B31,0] + c[B38,0] + 100 delta[B38,B31,0] <= 79.5
 PM[B38,B31,1]: - c[B31,1] + c[B38,1] + 10000 delta[B38,B31,1] <= 9985
 PM[B38,B32,0]: - c[B32,0] + c[B38,0] + 97 delta[B38,B32,0] <= 72.5
 PM[B38,B32,1]: - c[B32,1] + c[B38,1] + 10000 delta[B38,B32,1] <= 9985
 PM[B38,B33,0]: - c[B33,0] + c[B38,0] + 97 delta[B38,B33,0] <= 72
 PM[B38,B33,1]: - c[B33,1] + c[B38,1] + 10000 delta[B38,B33,1] <= 9990.5
 PM[B38,B34,0]: - c[B34,0] + c[B38,0] + 100 delta[B38,B34,0] <= 86
 PM[B38,B34,1]: - c[B34,1] + c[B38,1] + 10000 delta[B38,B34,1] <= 9987
 PM[B38,B35,0]: - c[B35,0] + c[B38,0] + 97 delta[B38,B35,0] <= 73.5
 PM[B38,B35,1]: - c[B35,1] + c[B38,1] + 10000 delta[B38,B35,1] <= 9980
 PM[B38,B36,0]: - c[B36,0] + c[B38,0] + 100 delta[B38,B36,0] <= 83.5
 PM[B38,B36,1]: - c[B36,1] + c[B38,1] + 10000 delta[B38,B36,1] <= 9988
 PM[B38,B37,0]: - c[B37,0] + c[B38,0] + 97 delta[B38,B37,0] <= 80.5
 PM[B38,B37,1]: - c[B37,1] + c[B38,1] + 10000 delta[B38,B37,1] <= 9990
 PM[B38,B39,0]: c[B38,0] - c[B39,0] + 97 delta[B38,B39,0] <= 69.5
 PM[B38,B39,1]: c[B38,1] - c[B39,1] + 10000 delta[B38,B39,1] <= 9983
 PM[B38,B40,0]: c[B38,0] - c[B40,0] + 97 delta[B38,B40,0] <= 74.5
 PM[B38,B40,1]: c[B38,1] - c[B40,1] + 10000 delta[B38,B40,1] <= 9990.5
 PM[B38,B41,0]: c[B38,0] - c[B41,0] + 100 delta[B38,B41,0] <= 84
 PM[B38,B41,1]: c[B38,1] - c[B41,1] + 10000 delta[B38,B41,1] <= 9988.5
 PM[B38,B42,0]: c[B38,0] - c[B42,0] + 100 delta[B38,B42,0] <= 81
 PM[B38,B42,1]: c[B38,1] - c[B42,1] + 10000 delta[B38,B42,1] <= 9974
 PM[B38,B43,0]: c[B38,0] - c[B43,0] + 97 delta[B38,B43,0] <= 75.5
 PM[B38,B43,1]: c[B38,1] - c[B43,1] + 10000 delta[B38,B43,1] <= 9983
 PM[B38,B44,0]: c[B38,0] - c[B44,0] + 100 delta[B38,B44,0] <= 80.5
 PM[B38,B44,1]: c[B38,1] - c[B44,1] + 10000 delta[B38,B44,1] <= 9983.5
 PM[B38,B45,0]: c[B38,0] - c[B45,0] + 100 delta[B38,B45,0] <= 83.5
 PM[B38,B45,1]: c[B38,1] - c[B45,1] + 10000 delta[B38,B45,1] <= 9976.5
 PM[B38,B46,0]: c[B38,0] - c[B46,0] + 97 delta[B38,B46,0] <= 76
 PM[B38,B46,1]: c[B38,1] - c[B46,1] + 10000 delta[B38,B46,1] <= 9990
 PM[B38,B47,0]: c[B38,0] - c[B47,0] + 100 delta[B38,B47,0] <= 82.5
 PM[B38,B47,1]: c[B38,1] - c[B47,1] + 10000 delta[B38,B47,1] <= 9988
 PM[B38,B48,0]: c[B38,0] - c[B48,0] + 100 delta[B38,B48,0] <= 81
 PM[B38,B48,1]: c[B38,1] - c[B48,1] + 10000 delta[B38,B48,1] <= 9989
 PM[B38,B49,0]: c[B38,0] - c[B49,0] + 100 delta[B38,B49,0] <= 82.5
 PM[B38,B49,1]: c[B38,1] - c[B49,1] + 10000 delta[B38,B49,1] <= 9986
 PM[B39,B0,0]: - c[B0,0] + c[B39,0] + 100 delta[B39,B0,0] <= 69.5
 PM[B39,B0,1]: - c[B0,1] + c[B39,1] + 9994 delta[B39,B0,1] <= 9966
 PM[B39,B1,0]: - c[B1,0] + c[B39,0] + 86 delta[B39,B1,0] <= 52
 PM[B39,B1,1]: - c[B1,1] + c[B39,1] + 10000 delta[B39,B1,1] <= 9971
 PM[B39,B2,0]: - c[B2,0] + c[B39,0] + 100 delta[B39,B2,0] <= 71
 PM[B39,B2,1]: - c[B2,1] + c[B39,1] + 10000 delta[B39,B2,1] <= 9972
 PM[B39,B3,0]: - c[B3,0] + c[B39,0] + 90 delta[B39,B3,0] <= 56
 PM[B39,B3,1]: - c[B3,1] + c[B39,1] + 9996 delta[B39,B3,1] <= 9967
 PM[B39,B4,0]: - c[B4,0] + c[B39,0] + 100 delta[B39,B4,0] <= 71
 PM[B39,B4,1]: - c[B4,1] + c[B39,1] + 10000 delta[B39,B4,1] <= 9971
 PM[B39,B5,0]: - c[B5,0] + c[B39,0] + 100 delta[B39,B5,0] <= 71
 PM[B39,B5,1]: - c[B5,1] + c[B39,1] + 10000 delta[B39,B5,1] <= 9974.5
 PM[B39,B6,0]: - c[B6,0] + c[B39,0] + 100 delta[B39,B6,0] <= 66.5
 PM[B39,B6,1]: - c[B6,1] + c[B39,1] + 10000 delta[B39,B6,1] <= 9973.5
 PM[B39,B7,0]: - c[B7,0] + c[B39,0] + 95 delta[B39,B7,0] <= 61.5
 PM[B39,B7,1]: - c[B7,1] + c[B39,1] + 10000 delta[B39,B7,1] <= 9973.5
 PM[B39,B8,0]: - c[B8,0] + c[B39,0] + 94 delta[B39,B8,0] <= 64.5
 PM[B39,B8,1]: - c[B8,1] + c[B39,1] + 9997 delta[B39,B8,1] <= 9966.5
 PM[B39,B9,0]: - c[B9,0] + c[B39,0] + 99 delta[B39,B9,0] <= 67.5
 PM[B39,B9,1]: - c[B9,1] + c[B39,1] + 10000 delta[B39,B9,1] <= 9973
 PM[B39,B10,0]: - c[B10,0] + c[B39,0] + 100 delta[B39,B10,0] <= 69
 PM[B39,B10,1]: - c[B10,1] + c[B39,1] + 10000 delta[B39,B10,1] <= 9972.5
 PM[B39,B11,0]: - c[B11,0] + c[B39,0] + 96 delta[B39,B11,0] <= 65.5
 PM[B39,B11,1]: - c[B11,1] + c[B39,1] + 9994 delta[B39,B11,1] <= 9966.5
 PM[B39,B12,0]: - c[B12,0] + c[B39,0] + 100 delta[B39,B12,0] <= 64.5
 PM[B39,B12,1]: - c[B12,1] + c[B39,1] + 9999 delta[B39,B12,1] <= 9970.5
 PM[B39,B13,0]: - c[B13,0] + c[B39,0] + 97 delta[B39,B13,0] <= 64
 PM[B39,B13,1]: - c[B13,1] + c[B39,1] + 10000 delta[B39,B13,1] <= 9973.5
 PM[B39,B14,0]: - c[B14,0] + c[B39,0] + 98 delta[B39,B14,0] <= 65
 PM[B39,B14,1]: - c[B14,1] + c[B39,1] + 9997 delta[B39,B14,1] <= 9970
 PM[B39,B15,0]: - c[B15,0] + c[B39,0] + 100 delta[B39,B15,0] <= 66
 PM[B39,B15,1]: - c[B15,1] + c[B39,1] + 9990 delta[B39,B15,1] <= 9961.5
 PM[B39,B16,0]: - c[B16,0] + c[B39,0] + 100 delta[B39,B16,0] <= 67.5
 PM[B39,B16,1]: - c[B16,1] + c[B39,1] + 9995 delta[B39,B16,1] <= 9968.5
 PM[B39,B17,0]: - c[B17,0] + c[B39,0] + 91 delta[B39,B17,0] <= 58
 PM[B39,B17,1]: - c[B17,1] + c[B39,1] + 9988 delta[B39,B17,1] <= 9952
 PM[B39,B18,0]: - c[B18,0] + c[B39,0] + 96 delta[B39,B18,0] <= 60
 PM[B39,B18,1]: - c[B18,1] + c[B39,1] + 10000 delta[B39,B18,1] <= 9974
 PM[B39,B19,0]: - c[B19,0] + c[B39,0] + 100 delta[B39,B19,0] <= 67.5
 PM[B39,B19,1]: - c[B19,1] + c[B39,1] + 10000 delta[B39,B19,1] <= 9972.5
 PM[B39,B20,0]: - c[B20,0] + c[B39,0] + 100 delta[B39,B20,0] <= 66
 PM[B39,B20,1]: - c[B20,1] + c[B39,1] + 9990 delta[B39,B20,1] <= 9962.5
 PM[B39,B21,0]: - c[B21,0] + c[B39,0] + 100 delta[B39,B21,0] <= 63
 PM[B39,B21,1]: - c[B21,1] + c[B39,1] + 9994 delta[B39,B21,1] <= 9967.5
 PM[B39,B22,0]: - c[B22,0] + c[B39,0] + 100 delta[B39,B22,0] <= 69.5
 PM[B39,B22,1]: - c[B22,1] + c[B39,1] + 9988 delta[B39,B22,1] <= 9957.5
 PM[B39,B23,0]: - c[B23,0] + c[B39,0] + 100 delta[B39,B23,0] <= 70
 PM[B39,B23,1]: - c[B23,1] + c[B39,1] + 10000 delta[B39,B23,1] <= 9969.5
 PM[B39,B24,0]: - c[B24,0] + c[B39,0] + 91 delta[B39,B24,0] <= 60
 PM[B39,B24,1]: - c[B24,1] + c[B39,1] + 9988 delta[B39,B24,1] <= 9955
 PM[B39,B25,0]: - c[B25,0] + c[B39,0] + 100 delta[B39,B25,0] <= 66
 PM[B39,B25,1]: - c[B25,1] + c[B39,1] + 10000 delta[B39,B25,1] <= 9973
 PM[B39,B26,0]: - c[B26,0] + c[B39,0] + 100 delta[B39,B26,0] <= 70.5
 PM[B39,B26,1]: - c[B26,1] + c[B39,1] + 10000 delta[B39,B26,1] <= 9974
 PM[B39,B27,0]: - c[B27,0] + c[B39,0] + 99 delta[B39,B27,0] <= 69
 PM[B39,B27,1]: - c[B27,1] + c[B39,1] + 9998 delta[B39,B27,1] <= 9966
 PM[B39,B28,0]: - c[B28,0] + c[B39,0] + 100 delta[B39,B28,0] <= 65.5
 PM[B39,B28,1]: - c[B28,1] + c[B39,1] + 10000 delta[B39,B28,1] <= 9974
 PM[B39,B29,0]: - c[B29,0] + c[B39,0] + 89 delta[B39,B29,0] <= 55
 PM[B39,B29,1]: - c[B29,1] + c[B39,1] + 9993 delta[B39,B29,1] <= 9963
 PM[B39,B30,0]: - c[B30,0] + c[B39,0] + 97 delta[B39,B30,0] <= 68
 PM[B39,B30,1]: - c[B30,1] + c[B39,1] + 10000 delta[B39,B30,1] <= 9967.5
 PM[B39,B31,0]: - c[B31,0] + c[B39,0] + 100 delta[B39,B31,0] <= 65
 PM[B39,B31,1]: - c[B31,1] + c[B39,1] + 10000 delta[B39,B31,1] <= 9969
 PM[B39,B32,0]: - c[B32,0] + c[B39,0] + 90 delta[B39,B32,0] <= 58
 PM[B39,B32,1]: - c[B32,1] + c[B39,1] + 9996 delta[B39,B32,1] <= 9969
 PM[B39,B33,0]: - c[B33,0] + c[B39,0] + 91 delta[B39,B33,0] <= 57.5
 PM[B39,B33,1]: - c[B33,1] + c[B39,1] + 10000 delta[B39,B33,1] <= 9974.5
 PM[B39,B34,0]: - c[B34,0] + c[B39,0] + 100 delta[B39,B34,0] <= 71.5
 PM[B39,B34,1]: - c[B34,1] + c[B39,1] + 10000 delta[B39,B34,1] <= 9971
 PM[B39,B35,0]: - c[B35,0] + c[B39,0] + 91 delta[B39,B35,0] <= 59
 PM[B39,B35,1]: - c[B35,1] + c[B39,1] + 9991 delta[B39,B35,1] <= 9964
 PM[B39,B36,0]: - c[B36,0] + c[B39,0] + 100 delta[B39,B36,0] <= 69
 PM[B39,B36,1]: - c[B36,1] + c[B39,1] + 10000 delta[B39,B36,1] <= 9972
 PM[B39,B37,0]: - c[B37,0] + c[B39,0] + 95 delta[B39,B37,0] <= 66
 PM[B39,B37,1]: - c[B37,1] + c[B39,1] + 10000 delta[B39,B37,1] <= 9974
 PM[B39,B38,0]: - c[B38,0] + c[B39,0] + 92 delta[B39,B38,0] <= 57.5
 PM[B39,B38,1]: - c[B38,1] + c[B39,1] + 10000 delta[B39,B38,1] <= 9971
 PM[B39,B40,0]: c[B39,0] - c[B40,0] + 91 delta[B39,B40,0] <= 60
 PM[B39,B40,1]: c[B39,1] - c[B40,1] + 10000 delta[B39,B40,1] <= 9974.5
 PM[B39,B41,0]: c[B39,0] - c[B41,0] + 100 delta[B39,B41,0] <= 69.5
 PM[B39,B41,1]: c[B39,1] - c[B41,1] + 10000 delta[B39,B41,1] <= 9972.5
 PM[B39,B42,0]: c[B39,0] - c[B42,0] + 100 delta[B39,B42,0] <= 66.5
 PM[B39,B42,1]: c[B39,1] - c[B42,1] + 9988 delta[B39,B42,1] <= 9958
 PM[B39,B43,0]: c[B39,0] - c[B43,0] + 95 delta[B39,B43,0] <= 61
 PM[B39,B43,1]: c[B39,1] - c[B43,1] + 9994 delta[B39,B43,1] <= 9967
 PM[B39,B44,0]: c[B39,0] - c[B44,0] + 100 delta[B39,B44,0] <= 66
 PM[B39,B44,1]: c[B39,1] - c[B44,1] + 9995 delta[B39,B44,1] <= 9967.5
 PM[B39,B45,0]: c[B39,0] - c[B45,0] + 100 delta[B39,B45,0] <= 69
 PM[B39,B45,1]: c[B39,1] - c[B45,1] + 9990 delta[B39,B45,1] <= 9960.5
 PM[B39,B46,0]: c[B39,0] - c[B46,0] + 92 delta[B39,B46,0] <= 61.5
 PM[B39,B46,1]: c[B39,1] - c[B46,1] + 10000 delta[B39,B46,1] <= 9974
 PM[B39,B47,0]: c[B39,0] - c[B47,0] + 100 delta[B39,B47,0] <= 68
 PM[B39,B47,1]: c[B39,1] - c[B47,1] + 10000 delta[B39,B47,1] <= 9972
 PM[B39,B48,0]: c[B39,0] - c[B48,0] + 100 delta[B39,B48,0] <= 66.5
 PM[B39,B48,1]: c[B39,1] - c[B48,1] + 10000 delta[B39,B48,1] <= 9973
 PM[B39,B49,0]: c[B39,0] - c[B49,0] + 100 delta[B39,B49,0] <= 68
 PM[B39,B49,1]: c[B39,1] - c[B49,1] + 9996 delta[B39,B49,1] <= 9970
 PM[B40,B0,0]: - c[B0,0] + c[B40,0] + 100 delta[B40,B0,0] <= 90.5
 PM[B40,B0,1]: - c[B0,1] + c[B40,1] + 9994 delta[B40,B0,1] <= 9979.5
 PM[B40,B1,0]: - c[B1,0] + c[B40,0] + 100 delta[B40,B1,0] <= 73
 PM[B40,B1,1]: - c[B1,1] + c[B40,1] + 10000 delta[B40,B1,1] <= 9984.5
 PM[B40,B2,0]: - c[B2,0] + c[B40,0] + 100 delta[B40,B2,0] <= 92
 PM[B40,B2,1]: - c[B2,1] + c[B40,1] + 10000 delta[B40,B2,1] <= 9985.5
 PM[B40,B3,0]: - c[B3,0] + c[B40,0] + 100 delta[B40,B3,0] <= 77
 PM[B40,B3,1]: - c[B3,1] + c[B40,1] + 9996 delta[B40,B3,1] <= 9980.5
 PM[B40,B4,0]: - c[B4,0] + c[B40,0] + 100 delta[B40,B4,0] <= 92
 PM[B40,B4,1]: - c[B4,1] + c[B40,1] + 10000 delta[B40,B4,1] <= 9984.5
 PM[B40,B5,0]: - c[B5,0] + c[B40,0] + 100 delta[B40,B5,0] <= 92
 PM[B40,B5,1]: - c[B5,1] + c[B40,1] + 10000 delta[B40,B5,1] <= 9988
 PM[B40,B6,0]: - c[B6,0] + c[B40,0] + 100 delta[B40,B6,0] <= 87.5
 PM[B40,B6,1]: - c[B6,1] + c[B40,1] + 10000 delta[B40,B6,1] <= 9987
 PM[B40,B7,0]: - c[B7,0] + c[B40,0] + 100 delta[B40,B7,0] <= 82.5
 PM[B40,B7,1]: - c[B7,1] + c[B40,1] + 10000 delta[B40,B7,1] <= 9987
 PM[B40,B8,0]: - c[B8,0] + c[B40,0] + 100 delta[B40,B8,0] <= 85.5
 PM[B40,B8,1]: - c[B8,1] + c[B40,1] + 9997 delta[B40,B8,1] <= 9980
 PM[B40,B9,0]: - c[B9,0] + c[B40,0] + 100 delta[B40,B9,0] <= 88.5
 PM[B40,B9,1]: - c[B9,1] + c[B40,1] + 10000 delta[B40,B9,1] <= 9986.5
 PM[B40,B10,0]: - c[B10,0] + c[B40,0] + 100 delta[B40,B10,0] <= 90
 PM[B40,B10,1]: - c[B10,1] + c[B40,1] + 10000 delta[B40,B10,1] <= 9986
 PM[B40,B11,0]: - c[B11,0] + c[B40,0] + 100 delta[B40,B11,0] <= 86.5
 PM[B40,B11,1]: - c[B11,1] + c[B40,1] + 9994 delta[B40,B11,1] <= 9980
 PM[B40,B12,0]: - c[B12,0] + c[B40,0] + 100 delta[B40,B12,0] <= 85.5
 PM[B40,B12,1]: - c[B12,1] + c[B40,1] + 9999 delta[B40,B12,1] <= 9984
 PM[B40,B13,0]: - c[B13,0] + c[B40,0] + 100 delta[B40,B13,0] <= 85
 PM[B40,B13,1]: - c[B13,1] + c[B40,1] + 10000 delta[B40,B13,1] <= 9987
 PM[B40,B14,0]: - c[B14,0] + c[B40,0] + 100 delta[B40,B14,0] <= 86
 PM[B40,B14,1]: - c[B14,1] + c[B40,1] + 9997 delta[B40,B14,1] <= 9983.5
 PM[B40,B15,0]: - c[B15,0] + c[B40,0] + 100 delta[B40,B15,0] <= 87
 PM[B40,B15,1]: - c[B15,1] + c[B40,1] + 9994 delta[B40,B15,1] <= 9975
 PM[B40,B16,0]: - c[B16,0] + c[B40,0] + 100 delta[B40,B16,0] <= 88.5
 PM[B40,B16,1]: - c[B16,1] + c[B40,1] + 9995 delta[B40,B16,1] <= 9982
 PM[B40,B17,0]: - c[B17,0] + c[B40,0] + 100 delta[B40,B17,0] <= 79
 PM[B40,B17,1]: - c[B17,1] + c[B40,1] + 9994 delta[B40,B17,1] <= 9965.5
 PM[B40,B18,0]: - c[B18,0] + c[B40,0] + 100 delta[B40,B18,0] <= 81
 PM[B40,B18,1]: - c[B18,1] + c[B40,1] + 10000 delta[B40,B18,1] <= 9987.5
 PM[B40,B19,0]: - c[B19,0] + c[B40,0] + 100 delta[B40,B19,0] <= 88.5
 PM[B40,B19,1]: - c[B19,1] + c[B40,1] + 10000 delta[B40,B19,1] <= 9986
 PM[B40,B20,0]: - c[B20,0] + c[B40,0] + 100 delta[B40,B20,0] <= 87
 PM[B40,B20,1]: - c[B20,1] + c[B40,1] + 9994 delta[B40,B20,1] <= 9976
 PM[B40,B21,0]: - c[B21,0] + c[B40,0] + 100 delta[B40,B21,0] <= 84
 PM[B40,B21,1]: - c[B21,1] + c[B40,1] + 9994 delta[B40,B21,1] <= 9981
 PM[B40,B22,0]: - c[B22,0] + c[B40,0] + 100 delta[B40,B22,0] <= 90.5
 PM[B40,B22,1]: - c[B22,1] + c[B40,1] + 9994 delta[B40,B22,1] <= 9971
 PM[B40,B23,0]: - c[B23,0] + c[B40,0] + 100 delta[B40,B23,0] <= 91
 PM[B40,B23,1]: - c[B23,1] + c[B40,1] + 10000 delta[B40,B23,1] <= 9983
 PM[B40,B24,0]: - c[B24,0] + c[B40,0] + 100 delta[B40,B24,0] <= 81
 PM[B40,B24,1]: - c[B24,1] + c[B40,1] + 9994 delta[B40,B24,1] <= 9968.5
 PM[B40,B25,0]: - c[B25,0] + c[B40,0] + 100 delta[B40,B25,0] <= 87
 PM[B40,B25,1]: - c[B25,1] + c[B40,1] + 10000 delta[B40,B25,1] <= 9986.5
 PM[B40,B26,0]: - c[B26,0] + c[B40,0] + 100 delta[B40,B26,0] <= 91.5
 PM[B40,B26,1]: - c[B26,1] + c[B40,1] + 10000 delta[B40,B26,1] <= 9987.5
 PM[B40,B27,0]: - c[B27,0] + c[B40,0] + 100 delta[B40,B27,0] <= 90
 PM[B40,B27,1]: - c[B27,1] + c[B40,1] + 9998 delta[B40,B27,1] <= 9979.5
 PM[B40,B28,0]: - c[B28,0] + c[B40,0] + 100 delta[B40,B28,0] <= 86.5
 PM[B40,B28,1]: - c[B28,1] + c[B40,1] + 10000 delta[B40,B28,1] <= 9987.5
 PM[B40,B29,0]: - c[B29,0] + c[B40,0] + 100 delta[B40,B29,0] <= 76
 PM[B40,B29,1]: - c[B29,1] + c[B40,1] + 9994 delta[B40,B29,1] <= 9976.5
 PM[B40,B30,0]: - c[B30,0] + c[B40,0] + 100 delta[B40,B30,0] <= 89
 PM[B40,B30,1]: - c[B30,1] + c[B40,1] + 10000 delta[B40,B30,1] <= 9981
 PM[B40,B31,0]: - c[B31,0] + c[B40,0] + 100 delta[B40,B31,0] <= 86
 PM[B40,B31,1]: - c[B31,1] + c[B40,1] + 10000 delta[B40,B31,1] <= 9982.5
 PM[B40,B32,0]: - c[B32,0] + c[B40,0] + 100 delta[B40,B32,0] <= 79
 PM[B40,B32,1]: - c[B32,1] + c[B40,1] + 9996 delta[B40,B32,1] <= 9982.5
 PM[B40,B33,0]: - c[B33,0] + c[B40,0] + 100 delta[B40,B33,0] <= 78.5
 PM[B40,B33,1]: - c[B33,1] + c[B40,1] + 10000 delta[B40,B33,1] <= 9988
 PM[B40,B34,0]: - c[B34,0] + c[B40,0] + 100 delta[B40,B34,0] <= 92.5
 PM[B40,B34,1]: - c[B34,1] + c[B40,1] + 10000 delta[B40,B34,1] <= 9984.5
 PM[B40,B35,0]: - c[B35,0] + c[B40,0] + 100 delta[B40,B35,0] <= 80
 PM[B40,B35,1]: - c[B35,1] + c[B40,1] + 9994 delta[B40,B35,1] <= 9977.5
 PM[B40,B36,0]: - c[B36,0] + c[B40,0] + 100 delta[B40,B36,0] <= 90
 PM[B40,B36,1]: - c[B36,1] + c[B40,1] + 10000 delta[B40,B36,1] <= 9985.5
 PM[B40,B37,0]: - c[B37,0] + c[B40,0] + 100 delta[B40,B37,0] <= 87
 PM[B40,B37,1]: - c[B37,1] + c[B40,1] + 10000 delta[B40,B37,1] <= 9987.5
 PM[B40,B38,0]: - c[B38,0] + c[B40,0] + 100 delta[B40,B38,0] <= 78.5
 PM[B40,B38,1]: - c[B38,1] + c[B40,1] + 10000 delta[B40,B38,1] <= 9984.5
 PM[B40,B39,0]: - c[B39,0] + c[B40,0] + 100 delta[B40,B39,0] <= 76
 PM[B40,B39,1]: - c[B39,1] + c[B40,1] + 10000 delta[B40,B39,1] <= 9980.5
 PM[B40,B41,0]: c[B40,0] - c[B41,0] + 100 delta[B40,B41,0] <= 90.5
 PM[B40,B41,1]: c[B40,1] - c[B41,1] + 10000 delta[B40,B41,1] <= 9986
 PM[B40,B42,0]: c[B40,0] - c[B42,0] + 100 delta[B40,B42,0] <= 87.5
 PM[B40,B42,1]: c[B40,1] - c[B42,1] + 9994 delta[B40,B42,1] <= 9971.5
 PM[B40,B43,0]: c[B40,0] - c[B43,0] + 100 delta[B40,B43,0] <= 82
 PM[B40,B43,1]: c[B40,1] - c[B43,1] + 9994 delta[B40,B43,1] <= 9980.5
 PM[B40,B44,0]: c[B40,0] - c[B44,0] + 100 delta[B40,B44,0] <= 87
 PM[B40,B44,1]: c[B40,1] - c[B44,1] + 9995 delta[B40,B44,1] <= 9981
 PM[B40,B45,0]: c[B40,0] - c[B45,0] + 100 delta[B40,B45,0] <= 90
 PM[B40,B45,1]: c[B40,1] - c[B45,1] + 9994 delta[B40,B45,1] <= 9974
 PM[B40,B46,0]: c[B40,0] - c[B46,0] + 100 delta[B40,B46,0] <= 82.5
 PM[B40,B46,1]: c[B40,1] - c[B46,1] + 10000 delta[B40,B46,1] <= 9987.5
 PM[B40,B47,0]: c[B40,0] - c[B47,0] + 100 delta[B40,B47,0] <= 89
 PM[B40,B47,1]: c[B40,1] - c[B47,1] + 10000 delta[B40,B47,1] <= 9985.5
 PM[B40,B48,0]: c[B40,0] - c[B48,0] + 100 delta[B40,B48,0] <= 87.5
 PM[B40,B48,1]: c[B40,1] - c[B48,1] + 10000 delta[B40,B48,1] <= 9986.5
 PM[B40,B49,0]: c[B40,0] - c[B49,0] + 100 delta[B40,B49,0] <= 89
 PM[B40,B49,1]: c[B40,1] - c[B49,1] + 9996 delta[B40,B49,1] <= 9983.5
 PM[B41,B0,0]: - c[B0,0] + c[B41,0] + 100 delta[B41,B0,0] <= 88
 PM[B41,B0,1]: - c[B0,1] + c[B41,1] + 10000 delta[B41,B0,1] <= 9983.5
 PM[B41,B1,0]: - c[B1,0] + c[B41,0] + 97 delta[B41,B1,0] <= 70.5
 PM[B41,B1,1]: - c[B1,1] + c[B41,1] + 10000 delta[B41,B1,1] <= 9988.5
 PM[B41,B2,0]: - c[B2,0] + c[B41,0] + 100 delta[B41,B2,0] <= 89.5
 PM[B41,B2,1]: - c[B2,1] + c[B41,1] + 10000 delta[B41,B2,1] <= 9989.5
 PM[B41,B3,0]: - c[B3,0] + c[B41,0] + 97 delta[B41,B3,0] <= 74.5
 PM[B41,B3,1]: - c[B3,1] + c[B41,1] + 10000 delta[B41,B3,1] <= 9984.5
 PM[B41,B4,0]: - c[B4,0] + c[B41,0] + 100 delta[B41,B4,0] <= 89.5
 PM[B41,B4,1]: - c[B4,1] + c[B41,1] + 10000 delta[B41,B4,1] <= 9988.5
 PM[B41,B5,0]: - c[B5,0] + c[B41,0] + 100 delta[B41,B5,0] <= 89.5
 PM[B41,B5,1]: - c[B5,1] + c[B41,1] + 10000 delta[B41,B5,1] <= 9992
 PM[B41,B6,0]: - c[B6,0] + c[B41,0] + 100 delta[B41,B6,0] <= 85
 PM[B41,B6,1]: - c[B6,1] + c[B41,1] + 10000 delta[B41,B6,1] <= 9991
 PM[B41,B7,0]: - c[B7,0] + c[B41,0] + 97 delta[B41,B7,0] <= 80
 PM[B41,B7,1]: - c[B7,1] + c[B41,1] + 10000 delta[B41,B7,1] <= 9991
 PM[B41,B8,0]: - c[B8,0] + c[B41,0] + 97 delta[B41,B8,0] <= 83
 PM[B41,B8,1]: - c[B8,1] + c[B41,1] + 10000 delta[B41,B8,1] <= 9984
 PM[B41,B9,0]: - c[B9,0] + c[B41,0] + 99 delta[B41,B9,0] <= 86
 PM[B41,B9,1]: - c[B9,1] + c[B41,1] + 10000 delta[B41,B9,1] <= 9990.5
 PM[B41,B10,0]: - c[B10,0] + c[B41,0] + 100 delta[B41,B10,0] <= 87.5
 PM[B41,B10,1]: - c[B10,1] + c[B41,1] + 10000 delta[B41,B10,1] <= 9990
 PM[B41,B11,0]: - c[B11,0] + c[B41,0] + 97 delta[B41,B11,0] <= 84
 PM[B41,B11,1]: - c[B11,1] + c[B41,1] + 10000 delta[B41,B11,1] <= 9984
 PM[B41,B12,0]: - c[B12,0] + c[B41,0] + 100 delta[B41,B12,0] <= 83
 PM[B41,B12,1]: - c[B12,1] + c[B41,1] + 10000 delta[B41,B12,1] <= 9988
 PM[B41,B13,0]: - c[B13,0] + c[B41,0] + 97 delta[B41,B13,0] <= 82.5
 PM[B41,B13,1]: - c[B13,1] + c[B41,1] + 10000 delta[B41,B13,1] <= 9991
 PM[B41,B14,0]: - c[B14,0] + c[B41,0] + 98 delta[B41,B14,0] <= 83.5
 PM[B41,B14,1]: - c[B14,1] + c[B41,1] + 10000 delta[B41,B14,1] <= 9987.5
 PM[B41,B15,0]: - c[B15,0] + c[B41,0] + 100 delta[B41,B15,0] <= 84.5
 PM[B41,B15,1]: - c[B15,1] + c[B41,1] + 10000 delta[B41,B15,1] <= 9979
 PM[B41,B16,0]: - c[B16,0] + c[B41,0] + 100 delta[B41,B16,0] <= 86
 PM[B41,B16,1]: - c[B16,1] + c[B41,1] + 10000 delta[B41,B16,1] <= 9986
 PM[B41,B17,0]: - c[B17,0] + c[B41,0] + 97 delta[B41,B17,0] <= 76.5
 PM[B41,B17,1]: - c[B17,1] + c[B41,1] + 10000 delta[B41,B17,1] <= 9969.5
 PM[B41,B18,0]: - c[B18,0] + c[B41,0] + 97 delta[B41,B18,0] <= 78.5
 PM[B41,B18,1]: - c[B18,1] + c[B41,1] + 10000 delta[B41,B18,1] <= 9991.5
 PM[B41,B19,0]: - c[B19,0] + c[B41,0] + 100 delta[B41,B19,0] <= 86
 PM[B41,B19,1]: - c[B19,1] + c[B41,1] + 10000 delta[B41,B19,1] <= 9990
 PM[B41,B20,0]: - c[B20,0] + c[B41,0] + 100 delta[B41,B20,0] <= 84.5
 PM[B41,B20,1]: - c[B20,1] + c[B41,1] + 10000 delta[B41,B20,1] <= 9980
 PM[B41,B21,0]: - c[B21,0] + c[B41,0] + 100 delta[B41,B21,0] <= 81.5
 PM[B41,B21,1]: - c[B21,1] + c[B41,1] + 10000 delta[B41,B21,1] <= 9985
 PM[B41,B22,0]: - c[B22,0] + c[B41,0] + 100 delta[B41,B22,0] <= 88
 PM[B41,B22,1]: - c[B22,1] + c[B41,1] + 10000 delta[B41,B22,1] <= 9975
 PM[B41,B23,0]: - c[B23,0] + c[B41,0] + 100 delta[B41,B23,0] <= 88.5
 PM[B41,B23,1]: - c[B23,1] + c[B41,1] + 10000 delta[B41,B23,1] <= 9987
 PM[B41,B24,0]: - c[B24,0] + c[B41,0] + 97 delta[B41,B24,0] <= 78.5
 PM[B41,B24,1]: - c[B24,1] + c[B41,1] + 10000 delta[B41,B24,1] <= 9972.5
 PM[B41,B25,0]: - c[B25,0] + c[B41,0] + 100 delta[B41,B25,0] <= 84.5
 PM[B41,B25,1]: - c[B25,1] + c[B41,1] + 10000 delta[B41,B25,1] <= 9990.5
 PM[B41,B26,0]: - c[B26,0] + c[B41,0] + 100 delta[B41,B26,0] <= 89
 PM[B41,B26,1]: - c[B26,1] + c[B41,1] + 10000 delta[B41,B26,1] <= 9991.5
 PM[B41,B27,0]: - c[B27,0] + c[B41,0] + 99 delta[B41,B27,0] <= 87.5
 PM[B41,B27,1]: - c[B27,1] + c[B41,1] + 10000 delta[B41,B27,1] <= 9983.5
 PM[B41,B28,0]: - c[B28,0] + c[B41,0] + 100 delta[B41,B28,0] <= 84
 PM[B41,B28,1]: - c[B28,1] + c[B41,1] + 10000 delta[B41,B28,1] <= 9991.5
 PM[B41,B29,0]: - c[B29,0] + c[B41,0] + 97 delta[B41,B29,0] <= 73.5
 PM[B41,B29,1]: - c[B29,1] + c[B41,1] + 10000 delta[B41,B29,1] <= 9980.5
 PM[B41,B30,0]: - c[B30,0] + c[B41,0] + 97 delta[B41,B30,0] <= 86.5
 PM[B41,B30,1]: - c[B30,1] + c[B41,1] + 10000 delta[B41,B30,1] <= 9985
 PM[B41,B31,0]: - c[B31,0] + c[B41,0] + 100 delta[B41,B31,0] <= 83.5
 PM[B41,B31,1]: - c[B31,1] + c[B41,1] + 10000 delta[B41,B31,1] <= 9986.5
 PM[B41,B32,0]: - c[B32,0] + c[B41,0] + 97 delta[B41,B32,0] <= 76.5
 PM[B41,B32,1]: - c[B32,1] + c[B41,1] + 10000 delta[B41,B32,1] <= 9986.5
 PM[B41,B33,0]: - c[B33,0] + c[B41,0] + 97 delta[B41,B33,0] <= 76
 PM[B41,B33,1]: - c[B33,1] + c[B41,1] + 10000 delta[B41,B33,1] <= 9992
 PM[B41,B34,0]: - c[B34,0] + c[B41,0] + 100 delta[B41,B34,0] <= 90
 PM[B41,B34,1]: - c[B34,1] + c[B41,1] + 10000 delta[B41,B34,1] <= 9988.5
 PM[B41,B35,0]: - c[B35,0] + c[B41,0] + 97 delta[B41,B35,0] <= 77.5
 PM[B41,B35,1]: - c[B35,1] + c[B41,1] + 10000 delta[B41,B35,1] <= 9981.5
 PM[B41,B36,0]: - c[B36,0] + c[B41,0] + 100 delta[B41,B36,0] <= 87.5
 PM[B41,B36,1]: - c[B36,1] + c[B41,1] + 10000 delta[B41,B36,1] <= 9989.5
 PM[B41,B37,0]: - c[B37,0] + c[B41,0] + 97 delta[B41,B37,0] <= 84.5
 PM[B41,B37,1]: - c[B37,1] + c[B41,1] + 10000 delta[B41,B37,1] <= 9991.5
 PM[B41,B38,0]: - c[B38,0] + c[B41,0] + 97 delta[B41,B38,0] <= 76
 PM[B41,B38,1]: - c[B38,1] + c[B41,1] + 10000 delta[B41,B38,1] <= 9988.5
 PM[B41,B39,0]: - c[B39,0] + c[B41,0] + 97 delta[B41,B39,0] <= 73.5
 PM[B41,B39,1]: - c[B39,1] + c[B41,1] + 10000 delta[B41,B39,1] <= 9984.5
 PM[B41,B40,0]: - c[B40,0] + c[B41,0] + 97 delta[B41,B40,0] <= 78.5
 PM[B41,B40,1]: - c[B40,1] + c[B41,1] + 10000 delta[B41,B40,1] <= 9992
 PM[B41,B42,0]: c[B41,0] - c[B42,0] + 100 delta[B41,B42,0] <= 85
 PM[B41,B42,1]: c[B41,1] - c[B42,1] + 10000 delta[B41,B42,1] <= 9975.5
 PM[B41,B43,0]: c[B41,0] - c[B43,0] + 97 delta[B41,B43,0] <= 79.5
 PM[B41,B43,1]: c[B41,1] - c[B43,1] + 10000 delta[B41,B43,1] <= 9984.5
 PM[B41,B44,0]: c[B41,0] - c[B44,0] + 100 delta[B41,B44,0] <= 84.5
 PM[B41,B44,1]: c[B41,1] - c[B44,1] + 10000 delta[B41,B44,1] <= 9985
 PM[B41,B45,0]: c[B41,0] - c[B45,0] + 100 delta[B41,B45,0] <= 87.5
 PM[B41,B45,1]: c[B41,1] - c[B45,1] + 10000 delta[B41,B45,1] <= 9978
 PM[B41,B46,0]: c[B41,0] - c[B46,0] + 97 delta[B41,B46,0] <= 80
 PM[B41,B46,1]: c[B41,1] - c[B46,1] + 10000 delta[B41,B46,1] <= 9991.5
 PM[B41,B47,0]: c[B41,0] - c[B47,0] + 100 delta[B41,B47,0] <= 86.5
 PM[B41,B47,1]: c[B41,1] - c[B47,1] + 10000 delta[B41,B47,1] <= 9989.5
 PM[B41,B48,0]: c[B41,0] - c[B48,0] + 100 delta[B41,B48,0] <= 85
 PM[B41,B48,1]: c[B41,1] - c[B48,1] + 10000 delta[B41,B48,1] <= 9990.5
 PM[B41,B49,0]: c[B41,0] - c[B49,0] + 100 delta[B41,B49,0] <= 86.5
 PM[B41,B49,1]: c[B41,1] - c[B49,1] + 10000 delta[B41,B49,1] <= 9987.5
 PM[B42,B0,0]: - c[B0,0] + c[B42,0] + 100 delta[B42,B0,0] <= 76
 PM[B42,B0,1]: - c[B0,1] + c[B42,1] + 9994 delta[B42,B0,1] <= 9974
 PM[B42,B1,0]: - c[B1,0] + c[B42,0] + 88 delta[B42,B1,0] <= 58.5
 PM[B42,B1,1]: - c[B1,1] + c[B42,1] + 10000 delta[B42,B1,1] <= 9979
 PM[B42,B2,0]: - c[B2,0] + c[B42,0] + 100 delta[B42,B2,0] <= 77.5
 PM[B42,B2,1]: - c[B2,1] + c[B42,1] + 10000 delta[B42,B2,1] <= 9980
 PM[B42,B3,0]: - c[B3,0] + c[B42,0] + 90 delta[B42,B3,0] <= 62.5
 PM[B42,B3,1]: - c[B3,1] + c[B42,1] + 9996 delta[B42,B3,1] <= 9975
 PM[B42,B4,0]: - c[B4,0] + c[B42,0] + 100 delta[B42,B4,0] <= 77.5
 PM[B42,B4,1]: - c[B4,1] + c[B42,1] + 10000 delta[B42,B4,1] <= 9979
 PM[B42,B5,0]: - c[B5,0] + c[B42,0] + 100 delta[B42,B5,0] <= 77.5
 PM[B42,B5,1]: - c[B5,1] + c[B42,1] + 10000 delta[B42,B5,1] <= 9982.5
 PM[B42,B6,0]: - c[B6,0] + c[B42,0] + 100 delta[B42,B6,0] <= 73
 PM[B42,B6,1]: - c[B6,1] + c[B42,1] + 10000 delta[B42,B6,1] <= 9981.5
 PM[B42,B7,0]: - c[B7,0] + c[B42,0] + 95 delta[B42,B7,0] <= 68
 PM[B42,B7,1]: - c[B7,1] + c[B42,1] + 10000 delta[B42,B7,1] <= 9981.5
 PM[B42,B8,0]: - c[B8,0] + c[B42,0] + 94 delta[B42,B8,0] <= 71
 PM[B42,B8,1]: - c[B8,1] + c[B42,1] + 9997 delta[B42,B8,1] <= 9974.5
 PM[B42,B9,0]: - c[B9,0] + c[B42,0] + 99 delta[B42,B9,0] <= 74
 PM[B42,B9,1]: - c[B9,1] + c[B42,1] + 10000 delta[B42,B9,1] <= 9981
 PM[B42,B10,0]: - c[B10,0] + c[B42,0] + 100 delta[B42,B10,0] <= 75.5
 PM[B42,B10,1]: - c[B10,1] + c[B42,1] + 10000 delta[B42,B10,1] <= 9980.5
 PM[B42,B11,0]: - c[B11,0] + c[B42,0] + 96 delta[B42,B11,0] <= 72
 PM[B42,B11,1]: - c[B11,1] + c[B42,1] + 9994 delta[B42,B11,1] <= 9974.5
 PM[B42,B12,0]: - c[B12,0] + c[B42,0] + 100 delta[B42,B12,0] <= 71
 PM[B42,B12,1]: - c[B12,1] + c[B42,1] + 9999 delta[B42,B12,1] <= 9978.5
 PM[B42,B13,0]: - c[B13,0] + c[B42,0] + 97 delta[B42,B13,0] <= 70.5
 PM[B42,B13,1]: - c[B13,1] + c[B42,1] + 10000 delta[B42,B13,1] <= 9981.5
 PM[B42,B14,0]: - c[B14,0] + c[B42,0] + 98 delta[B42,B14,0] <= 71.5
 PM[B42,B14,1]: - c[B14,1] + c[B42,1] + 9997 delta[B42,B14,1] <= 9978
 PM[B42,B15,0]: - c[B15,0] + c[B42,0] + 100 delta[B42,B15,0] <= 72.5
 PM[B42,B15,1]: - c[B15,1] + c[B42,1] + 9992 delta[B42,B15,1] <= 9969.5
 PM[B42,B16,0]: - c[B16,0] + c[B42,0] + 100 delta[B42,B16,0] <= 74
 PM[B42,B16,1]: - c[B16,1] + c[B42,1] + 9995 delta[B42,B16,1] <= 9976.5
 PM[B42,B17,0]: - c[B17,0] + c[B42,0] + 91 delta[B42,B17,0] <= 64.5
 PM[B42,B17,1]: - c[B17,1] + c[B42,1] + 9992 delta[B42,B17,1] <= 9960
 PM[B42,B18,0]: - c[B18,0] + c[B42,0] + 96 delta[B42,B18,0] <= 66.5
 PM[B42,B18,1]: - c[B18,1] + c[B42,1] + 10000 delta[B42,B18,1] <= 9982
 PM[B42,B19,0]: - c[B19,0] + c[B42,0] + 100 delta[B42,B19,0] <= 74
 PM[B42,B19,1]: - c[B19,1] + c[B42,1] + 10000 delta[B42,B19,1] <= 9980.5
 PM[B42,B20,0]: - c[B20,0] + c[B42,0] + 100 delta[B42,B20,0] <= 72.5
 PM[B42,B20,1]: - c[B20,1] + c[B42,1] + 9992 delta[B42,B20,1] <= 9970.5
 PM[B42,B21,0]: - c[B21,0] + c[B42,0] + 100 delta[B42,B21,0] <= 69.5
 PM[B42,B21,1]: - c[B21,1] + c[B42,1] + 9994 delta[B42,B21,1] <= 9975.5
 PM[B42,B22,0]: - c[B22,0] + c[B42,0] + 100 delta[B42,B22,0] <= 76
 PM[B42,B22,1]: - c[B22,1] + c[B42,1] + 9992 delta[B42,B22,1] <= 9965.5
 PM[B42,B23,0]: - c[B23,0] + c[B42,0] + 100 delta[B42,B23,0] <= 76.5
 PM[B42,B23,1]: - c[B23,1] + c[B42,1] + 10000 delta[B42,B23,1] <= 9977.5
 PM[B42,B24,0]: - c[B24,0] + c[B42,0] + 91 delta[B42,B24,0] <= 66.5
 PM[B42,B24,1]: - c[B24,1] + c[B42,1] + 9992 delta[B42,B24,1] <= 9963
 PM[B42,B25,0]: - c[B25,0] + c[B42,0] + 100 delta[B42,B25,0] <= 72.5
 PM[B42,B25,1]: - c[B25,1] + c[B42,1] + 10000 delta[B42,B25,1] <= 9981
 PM[B42,B26,0]: - c[B26,0] + c[B42,0] + 100 delta[B42,B26,0] <= 77
 PM[B42,B26,1]: - c[B26,1] + c[B42,1] + 10000 delta[B42,B26,1] <= 9982
 PM[B42,B27,0]: - c[B27,0] + c[B42,0] + 99 delta[B42,B27,0] <= 75.5
 PM[B42,B27,1]: - c[B27,1] + c[B42,1] + 9998 delta[B42,B27,1] <= 9974
 PM[B42,B28,0]: - c[B28,0] + c[B42,0] + 100 delta[B42,B28,0] <= 72
 PM[B42,B28,1]: - c[B28,1] + c[B42,1] + 10000 delta[B42,B28,1] <= 9982
 PM[B42,B29,0]: - c[B29,0] + c[B42,0] + 89 delta[B42,B29,0] <= 61.5
 PM[B42,B29,1]: - c[B29,1] + c[B42,1] + 9993 delta[B42,B29,1] <= 9971
 PM[B42,B30,0]: - c[B30,0] + c[B42,0] + 97 delta[B42,B30,0] <= 74.5
 PM[B42,B30,1]: - c[B30,1] + c[B42,1] + 10000 delta[B42,B30,1] <= 9975.5
 PM[B42,B31,0]: - c[B31,0] + c[B42,0] + 100 delta[B42,B31,0] <= 71.5
 PM[B42,B31,1]: - c[B31,1] + c[B42,1] + 10000 delta[B42,B31,1] <= 9977
 PM[B42,B32,0]: - c[B32,0] + c[B42,0] + 90 delta[B42,B32,0] <= 64.5
 PM[B42,B32,1]: - c[B32,1] + c[B42,1] + 9996 delta[B42,B32,1] <= 9977
 PM[B42,B33,0]: - c[B33,0] + c[B42,0] + 91 delta[B42,B33,0] <= 64
 PM[B42,B33,1]: - c[B33,1] + c[B42,1] + 10000 delta[B42,B33,1] <= 9982.5
 PM[B42,B34,0]: - c[B34,0] + c[B42,0] + 100 delta[B42,B34,0] <= 78
 PM[B42,B34,1]: - c[B34,1] + c[B42,1] + 10000 delta[B42,B34,1] <= 9979
 PM[B42,B35,0]: - c[B35,0] + c[B42,0] + 91 delta[B42,B35,0] <= 65.5
 PM[B42,B35,1]: - c[B35,1] + c[B42,1] + 9992 delta[B42,B35,1] <= 9972
 PM[B42,B36,0]: - c[B36,0] + c[B42,0] + 100 delta[B42,B36,0] <= 75.5
 PM[B42,B36,1]: - c[B36,1] + c[B42,1] + 10000 delta[B42,B36,1] <= 9980
 PM[B42,B37,0]: - c[B37,0] + c[B42,0] + 95 delta[B42,B37,0] <= 72.5
 PM[B42,B37,1]: - c[B37,1] + c[B42,1] + 10000 delta[B42,B37,1] <= 9982
 PM[B42,B38,0]: - c[B38,0] + c[B42,0] + 92 delta[B42,B38,0] <= 64
 PM[B42,B38,1]: - c[B38,1] + c[B42,1] + 10000 delta[B42,B38,1] <= 9979
 PM[B42,B39,0]: - c[B39,0] + c[B42,0] + 90 delta[B42,B39,0] <= 61.5
 PM[B42,B39,1]: - c[B39,1] + c[B42,1] + 10000 delta[B42,B39,1] <= 9975
 PM[B42,B40,0]: - c[B40,0] + c[B42,0] + 91 delta[B42,B40,0] <= 66.5
 PM[B42,B40,1]: - c[B40,1] + c[B42,1] + 10000 delta[B42,B40,1] <= 9982.5
 PM[B42,B41,0]: - c[B41,0] + c[B42,0] + 100 delta[B42,B41,0] <= 76
 PM[B42,B41,1]: - c[B41,1] + c[B42,1] + 10000 delta[B42,B41,1] <= 9980.5
 PM[B42,B43,0]: c[B42,0] - c[B43,0] + 95 delta[B42,B43,0] <= 67.5
 PM[B42,B43,1]: c[B42,1] - c[B43,1] + 9994 delta[B42,B43,1] <= 9975
 PM[B42,B44,0]: c[B42,0] - c[B44,0] + 100 delta[B42,B44,0] <= 72.5
 PM[B42,B44,1]: c[B42,1] - c[B44,1] + 9995 delta[B42,B44,1] <= 9975.5
 PM[B42,B45,0]: c[B42,0] - c[B45,0] + 100 delta[B42,B45,0] <= 75.5
 PM[B42,B45,1]: c[B42,1] - c[B45,1] + 9992 delta[B42,B45,1] <= 9968.5
 PM[B42,B46,0]: c[B42,0] - c[B46,0] + 92 delta[B42,B46,0] <= 68
 PM[B42,B46,1]: c[B42,1] - c[B46,1] + 10000 delta[B42,B46,1] <= 9982
 PM[B42,B47,0]: c[B42,0] - c[B47,0] + 100 delta[B42,B47,0] <= 74.5
 PM[B42,B47,1]: c[B42,1] - c[B47,1] + 10000 delta[B42,B47,1] <= 9980
 PM[B42,B48,0]: c[B42,0] - c[B48,0] + 100 delta[B42,B48,0] <= 73
 PM[B42,B48,1]: c[B42,1] - c[B48,1] + 10000 delta[B42,B48,1] <= 9981
 PM[B42,B49,0]: c[B42,0] - c[B49,0] + 100 delta[B42,B49,0] <= 74.5
 PM[B42,B49,1]: c[B42,1] - c[B49,1] + 9996 delta[B42,B49,1] <= 9978
 PM[B43,B0,0]: - c[B0,0] + c[B43,0] + 100 delta[B43,B0,0] <= 73.5
 PM[B43,B0,1]: - c[B0,1] + c[B43,1] + 10000 delta[B43,B0,1] <= 9984
 PM[B43,B1,0]: - c[B1,0] + c[B43,0] + 86 delta[B43,B1,0] <= 56
 PM[B43,B1,1]: - c[B1,1] + c[B43,1] + 10000 delta[B43,B1,1] <= 9989
 PM[B43,B2,0]: - c[B2,0] + c[B43,0] + 100 delta[B43,B2,0] <= 75
 PM[B43,B2,1]: - c[B2,1] + c[B43,1] + 10000 delta[B43,B2,1] <= 9990
 PM[B43,B3,0]: - c[B3,0] + c[B43,0] + 90 delta[B43,B3,0] <= 60
 PM[B43,B3,1]: - c[B3,1] + c[B43,1] + 10000 delta[B43,B3,1] <= 9985
 PM[B43,B4,0]: - c[B4,0] + c[B43,0] + 100 delta[B43,B4,0] <= 75
 PM[B43,B4,1]: - c[B4,1] + c[B43,1] + 10000 delta[B43,B4,1] <= 9989
 PM[B43,B5,0]: - c[B5,0] + c[B43,0] + 100 delta[B43,B5,0] <= 75
 PM[B43,B5,1]: - c[B5,1] + c[B43,1] + 10000 delta[B43,B5,1] <= 9992.5
 PM[B43,B6,0]: - c[B6,0] + c[B43,0] + 100 delta[B43,B6,0] <= 70.5
 PM[B43,B6,1]: - c[B6,1] + c[B43,1] + 10000 delta[B43,B6,1] <= 9991.5
 PM[B43,B7,0]: - c[B7,0] + c[B43,0] + 95 delta[B43,B7,0] <= 65.5
 PM[B43,B7,1]: - c[B7,1] + c[B43,1] + 10000 delta[B43,B7,1] <= 9991.5
 PM[B43,B8,0]: - c[B8,0] + c[B43,0] + 94 delta[B43,B8,0] <= 68.5
 PM[B43,B8,1]: - c[B8,1] + c[B43,1] + 10000 delta[B43,B8,1] <= 9984.5
 PM[B43,B9,0]: - c[B9,0] + c[B43,0] + 99 delta[B43,B9,0] <= 71.5
 PM[B43,B9,1]: - c[B9,1] + c[B43,1] + 10000 delta[B43,B9,1] <= 9991
 PM[B43,B10,0]: - c[B10,0] + c[B43,0] + 100 delta[B43,B10,0] <= 73
 PM[B43,B10,1]: - c[B10,1] + c[B43,1] + 10000 delta[B43,B10,1] <= 9990.5
 PM[B43,B11,0]: - c[B11,0] + c[B43,0] + 96 delta[B43,B11,0] <= 69.5
 PM[B43,B11,1]: - c[B11,1] + c[B43,1] + 10000 delta[B43,B11,1] <= 9984.5
 PM[B43,B12,0]: - c[B12,0] + c[B43,0] + 100 delta[B43,B12,0] <= 68.5
 PM[B43,B12,1]: - c[B12,1] + c[B43,1] + 10000 delta[B43,B12,1] <= 9988.5
 PM[B43,B13,0]: - c[B13,0] + c[B43,0] + 97 delta[B43,B13,0] <= 68
 PM[B43,B13,1]: - c[B13,1] + c[B43,1] + 10000 delta[B43,B13,1] <= 9991.5
 PM[B43,B14,0]: - c[B14,0] + c[B43,0] + 98 delta[B43,B14,0] <= 69
 PM[B43,B14,1]: - c[B14,1] + c[B43,1] + 10000 delta[B43,B14,1] <= 9988
 PM[B43,B15,0]: - c[B15,0] + c[B43,0] + 100 delta[B43,B15,0] <= 70
 PM[B43,B15,1]: - c[B15,1] + c[B43,1] + 10000 delta[B43,B15,1] <= 9979.5
 PM[B43,B16,0]: - c[B16,0] + c[B43,0] + 100 delta[B43,B16,0] <= 71.5
 PM[B43,B16,1]: - c[B16,1] + c[B43,1] + 10000 delta[B43,B16,1] <= 9986.5
 PM[B43,B17,0]: - c[B17,0] + c[B43,0] + 91 delta[B43,B17,0] <= 62
 PM[B43,B17,1]: - c[B17,1] + c[B43,1] + 10000 delta[B43,B17,1] <= 9970
 PM[B43,B18,0]: - c[B18,0] + c[B43,0] + 96 delta[B43,B18,0] <= 64
 PM[B43,B18,1]: - c[B18,1] + c[B43,1] + 10000 delta[B43,B18,1] <= 9992
 PM[B43,B19,0]: - c[B19,0] + c[B43,0] + 100 delta[B43,B19,0] <= 71.5
 PM[B43,B19,1]: - c[B19,1] + c[B43,1] + 10000 delta[B43,B19,1] <= 9990.5
 PM[B43,B20,0]: - c[B20,0] + c[B43,0] + 100 delta[B43,B20,0] <= 70
 PM[B43,B20,1]: - c[B20,1] + c[B43,1] + 10000 delta[B43,B20,1] <= 9980.5
 PM[B43,B21,0]: - c[B21,0] + c[B43,0] + 100 delta[B43,B21,0] <= 67
 PM[B43,B21,1]: - c[B21,1] + c[B43,1] + 10000 delta[B43,B21,1] <= 9985.5
 PM[B43,B22,0]: - c[B22,0] + c[B43,0] + 100 delta[B43,B22,0] <= 73.5
 PM[B43,B22,1]: - c[B22,1] + c[B43,1] + 10000 delta[B43,B22,1] <= 9975.5
 PM[B43,B23,0]: - c[B23,0] + c[B43,0] + 100 delta[B43,B23,0] <= 74
 PM[B43,B23,1]: - c[B23,1] + c[B43,1] + 10000 delta[B43,B23,1] <= 9987.5
 PM[B43,B24,0]: - c[B24,0] + c[B43,0] + 91 delta[B43,B24,0] <= 64
 PM[B43,B24,1]: - c[B24,1] + c[B43,1] + 10000 delta[B43,B24,1] <= 9973
 PM[B43,B25,0]: - c[B25,0] + c[B43,0] + 100 delta[B43,B25,0] <= 70
 PM[B43,B25,1]: - c[B25,1] + c[B43,1] + 10000 delta[B43,B25,1] <= 9991
 PM[B43,B26,0]: - c[B26,0] + c[B43,0] + 100 delta[B43,B26,0] <= 74.5
 PM[B43,B26,1]: - c[B26,1] + c[B43,1] + 10000 delta[B43,B26,1] <= 9992
 PM[B43,B27,0]: - c[B27,0] + c[B43,0] + 99 delta[B43,B27,0] <= 73
 PM[B43,B27,1]: - c[B27,1] + c[B43,1] + 10000 delta[B43,B27,1] <= 9984
 PM[B43,B28,0]: - c[B28,0] + c[B43,0] + 100 delta[B43,B28,0] <= 69.5
 PM[B43,B28,1]: - c[B28,1] + c[B43,1] + 10000 delta[B43,B28,1] <= 9992
 PM[B43,B29,0]: - c[B29,0] + c[B43,0] + 89 delta[B43,B29,0] <= 59
 PM[B43,B29,1]: - c[B29,1] + c[B43,1] + 10000 delta[B43,B29,1] <= 9981
 PM[B43,B30,0]: - c[B30,0] + c[B43,0] + 97 delta[B43,B30,0] <= 72
 PM[B43,B30,1]: - c[B30,1] + c[B43,1] + 10000 delta[B43,B30,1] <= 9985.5
 PM[B43,B31,0]: - c[B31,0] + c[B43,0] + 100 delta[B43,B31,0] <= 69
 PM[B43,B31,1]: - c[B31,1] + c[B43,1] + 10000 delta[B43,B31,1] <= 9987
 PM[B43,B32,0]: - c[B32,0] + c[B43,0] + 90 delta[B43,B32,0] <= 62
 PM[B43,B32,1]: - c[B32,1] + c[B43,1] + 10000 delta[B43,B32,1] <= 9987
 PM[B43,B33,0]: - c[B33,0] + c[B43,0] + 91 delta[B43,B33,0] <= 61.5
 PM[B43,B33,1]: - c[B33,1] + c[B43,1] + 10000 delta[B43,B33,1] <= 9992.5
 PM[B43,B34,0]: - c[B34,0] + c[B43,0] + 100 delta[B43,B34,0] <= 75.5
 PM[B43,B34,1]: - c[B34,1] + c[B43,1] + 10000 delta[B43,B34,1] <= 9989
 PM[B43,B35,0]: - c[B35,0] + c[B43,0] + 91 delta[B43,B35,0] <= 63
 PM[B43,B35,1]: - c[B35,1] + c[B43,1] + 10000 delta[B43,B35,1] <= 9982
 PM[B43,B36,0]: - c[B36,0] + c[B43,0] + 100 delta[B43,B36,0] <= 73
 PM[B43,B36,1]: - c[B36,1] + c[B43,1] + 10000 delta[B43,B36,1] <= 9990
 PM[B43,B37,0]: - c[B37,0] + c[B43,0] + 95 delta[B43,B37,0] <= 70
 PM[B43,B37,1]: - c[B37,1] + c[B43,1] + 10000 delta[B43,B37,1] <= 9992
 PM[B43,B38,0]: - c[B38,0] + c[B43,0] + 92 delta[B43,B38,0] <= 61.5
 PM[B43,B38,1]: - c[B38,1] + c[B43,1] + 10000 delta[B43,B38,1] <= 9989
 PM[B43,B39,0]: - c[B39,0] + c[B43,0] + 90 delta[B43,B39,0] <= 59
 PM[B43,B39,1]: - c[B39,1] + c[B43,1] + 10000 delta[B43,B39,1] <= 9985
 PM[B43,B40,0]: - c[B40,0] + c[B43,0] + 91 delta[B43,B40,0] <= 64
 PM[B43,B40,1]: - c[B40,1] + c[B43,1] + 10000 delta[B43,B40,1] <= 9992.5
 PM[B43,B41,0]: - c[B41,0] + c[B43,0] + 100 delta[B43,B41,0] <= 73.5
 PM[B43,B41,1]: - c[B41,1] + c[B43,1] + 10000 delta[B43,B41,1] <= 9990.5
 PM[B43,B42,0]: - c[B42,0] + c[B43,0] + 100 delta[B43,B42,0] <= 70.5
 PM[B43,B42,1]: - c[B42,1] + c[B43,1] + 10000 delta[B43,B42,1] <= 9976
 PM[B43,B44,0]: c[B43,0] - c[B44,0] + 100 delta[B43,B44,0] <= 70
 PM[B43,B44,1]: c[B43,1] - c[B44,1] + 10000 delta[B43,B44,1] <= 9985.5
 PM[B43,B45,0]: c[B43,0] - c[B45,0] + 100 delta[B43,B45,0] <= 73
 PM[B43,B45,1]: c[B43,1] - c[B45,1] + 10000 delta[B43,B45,1] <= 9978.5
 PM[B43,B46,0]: c[B43,0] - c[B46,0] + 92 delta[B43,B46,0] <= 65.5
 PM[B43,B46,1]: c[B43,1] - c[B46,1] + 10000 delta[B43,B46,1] <= 9992
 PM[B43,B47,0]: c[B43,0] - c[B47,0] + 100 delta[B43,B47,0] <= 72
 PM[B43,B47,1]: c[B43,1] - c[B47,1] + 10000 delta[B43,B47,1] <= 9990
 PM[B43,B48,0]: c[B43,0] - c[B48,0] + 100 delta[B43,B48,0] <= 70.5
 PM[B43,B48,1]: c[B43,1] - c[B48,1] + 10000 delta[B43,B48,1] <= 9991
 PM[B43,B49,0]: c[B43,0] - c[B49,0] + 100 delta[B43,B49,0] <= 72
 PM[B43,B49,1]: c[B43,1] - c[B49,1] + 10000 delta[B43,B49,1] <= 9988
 PM[B44,B0,0]: - c[B0,0] + c[B44,0] + 100 delta[B44,B0,0] <= 87.5
 PM[B44,B0,1]: - c[B0,1] + c[B44,1] + 10000 delta[B44,B0,1] <= 9983.5
 PM[B44,B1,0]: - c[B1,0] + c[B44,0] + 100 delta[B44,B1,0] <= 70
 PM[B44,B1,1]: - c[B1,1] + c[B44,1] + 10000 delta[B44,B1,1] <= 9988.5
 PM[B44,B2,0]: - c[B2,0] + c[B44,0] + 100 delta[B44,B2,0] <= 89
 PM[B44,B2,1]: - c[B2,1] + c[B44,1] + 10000 delta[B44,B2,1] <= 9989.5
 PM[B44,B3,0]: - c[B3,0] + c[B44,0] + 100 delta[B44,B3,0] <= 74
 PM[B44,B3,1]: - c[B3,1] + c[B44,1] + 10000 delta[B44,B3,1] <= 9984.5
 PM[B44,B4,0]: - c[B4,0] + c[B44,0] + 100 delta[B44,B4,0] <= 89
 PM[B44,B4,1]: - c[B4,1] + c[B44,1] + 10000 delta[B44,B4,1] <= 9988.5
 PM[B44,B5,0]: - c[B5,0] + c[B44,0] + 100 delta[B44,B5,0] <= 89
 PM[B44,B5,1]: - c[B5,1] + c[B44,1] + 10000 delta[B44,B5,1] <= 9992
 PM[B44,B6,0]: - c[B6,0] + c[B44,0] + 100 delta[B44,B6,0] <= 84.5
 PM[B44,B6,1]: - c[B6,1] + c[B44,1] + 10000 delta[B44,B6,1] <= 9991
 PM[B44,B7,0]: - c[B7,0] + c[B44,0] + 100 delta[B44,B7,0] <= 79.5
 PM[B44,B7,1]: - c[B7,1] + c[B44,1] + 10000 delta[B44,B7,1] <= 9991
 PM[B44,B8,0]: - c[B8,0] + c[B44,0] + 100 delta[B44,B8,0] <= 82.5
 PM[B44,B8,1]: - c[B8,1] + c[B44,1] + 10000 delta[B44,B8,1] <= 9984
 PM[B44,B9,0]: - c[B9,0] + c[B44,0] + 100 delta[B44,B9,0] <= 85.5
 PM[B44,B9,1]: - c[B9,1] + c[B44,1] + 10000 delta[B44,B9,1] <= 9990.5
 PM[B44,B10,0]: - c[B10,0] + c[B44,0] + 100 delta[B44,B10,0] <= 87
 PM[B44,B10,1]: - c[B10,1] + c[B44,1] + 10000 delta[B44,B10,1] <= 9990
 PM[B44,B11,0]: - c[B11,0] + c[B44,0] + 100 delta[B44,B11,0] <= 83.5
 PM[B44,B11,1]: - c[B11,1] + c[B44,1] + 10000 delta[B44,B11,1] <= 9984
 PM[B44,B12,0]: - c[B12,0] + c[B44,0] + 100 delta[B44,B12,0] <= 82.5
 PM[B44,B12,1]: - c[B12,1] + c[B44,1] + 10000 delta[B44,B12,1] <= 9988
 PM[B44,B13,0]: - c[B13,0] + c[B44,0] + 100 delta[B44,B13,0] <= 82
 PM[B44,B13,1]: - c[B13,1] + c[B44,1] + 10000 delta[B44,B13,1] <= 9991
 PM[B44,B14,0]: - c[B14,0] + c[B44,0] + 100 delta[B44,B14,0] <= 83
 PM[B44,B14,1]: - c[B14,1] + c[B44,1] + 10000 delta[B44,B14,1] <= 9987.5
 PM[B44,B15,0]: - c[B15,0] + c[B44,0] + 100 delta[B44,B15,0] <= 84
 PM[B44,B15,1]: - c[B15,1] + c[B44,1] + 10000 delta[B44,B15,1] <= 9979
 PM[B44,B16,0]: - c[B16,0] + c[B44,0] + 100 delta[B44,B16,0] <= 85.5
 PM[B44,B16,1]: - c[B16,1] + c[B44,1] + 10000 delta[B44,B16,1] <= 9986
 PM[B44,B17,0]: - c[B17,0] + c[B44,0] + 100 delta[B44,B17,0] <= 76
 PM[B44,B17,1]: - c[B17,1] + c[B44,1] + 10000 delta[B44,B17,1] <= 9969.5
 PM[B44,B18,0]: - c[B18,0] + c[B44,0] + 100 delta[B44,B18,0] <= 78
 PM[B44,B18,1]: - c[B18,1] + c[B44,1] + 10000 delta[B44,B18,1] <= 9991.5
 PM[B44,B19,0]: - c[B19,0] + c[B44,0] + 100 delta[B44,B19,0] <= 85.5
 PM[B44,B19,1]: - c[B19,1] + c[B44,1] + 10000 delta[B44,B19,1] <= 9990
 PM[B44,B20,0]: - c[B20,0] + c[B44,0] + 100 delta[B44,B20,0] <= 84
 PM[B44,B20,1]: - c[B20,1] + c[B44,1] + 10000 delta[B44,B20,1] <= 9980
 PM[B44,B21,0]: - c[B21,0] + c[B44,0] + 100 delta[B44,B21,0] <= 81
 PM[B44,B21,1]: - c[B21,1] + c[B44,1] + 10000 delta[B44,B21,1] <= 9985
 PM[B44,B22,0]: - c[B22,0] + c[B44,0] + 100 delta[B44,B22,0] <= 87.5
 PM[B44,B22,1]: - c[B22,1] + c[B44,1] + 10000 delta[B44,B22,1] <= 9975
 PM[B44,B23,0]: - c[B23,0] + c[B44,0] + 100 delta[B44,B23,0] <= 88
 PM[B44,B23,1]: - c[B23,1] + c[B44,1] + 10000 delta[B44,B23,1] <= 9987
 PM[B44,B24,0]: - c[B24,0] + c[B44,0] + 100 delta[B44,B24,0] <= 78
 PM[B44,B24,1]: - c[B24,1] + c[B44,1] + 10000 delta[B44,B24,1] <= 9972.5
 PM[B44,B25,0]: - c[B25,0] + c[B44,0] + 100 delta[B44,B25,0] <= 84
 PM[B44,B25,1]: - c[B25,1] + c[B44,1] + 10000 delta[B44,B25,1] <= 9990.5
 PM[B44,B26,0]: - c[B26,0] + c[B44,0] + 100 delta[B44,B26,0] <= 88.5
 PM[B44,B26,1]: - c[B26,1] + c[B44,1] + 10000 delta[B44,B26,1] <= 9991.5
 PM[B44,B27,0]: - c[B27,0] + c[B44,0] + 100 delta[B44,B27,0] <= 87
 PM[B44,B27,1]: - c[B27,1] + c[B44,1] + 10000 delta[B44,B27,1] <= 9983.5
 PM[B44,B28,0]: - c[B28,0] + c[B44,0] + 100 delta[B44,B28,0] <= 83.5
 PM[B44,B28,1]: - c[B28,1] + c[B44,1] + 10000 delta[B44,B28,1] <= 9991.5
 PM[B44,B29,0]: - c[B29,0] + c[B44,0] + 100 delta[B44,B29,0] <= 73
 PM[B44,B29,1]: - c[B29,1] + c[B44,1] + 10000 delta[B44,B29,1] <= 9980.5
 PM[B44,B30,0]: - c[B30,0] + c[B44,0] + 100 delta[B44,B30,0] <= 86
 PM[B44,B30,1]: - c[B30,1] + c[B44,1] + 10000 delta[B44,B30,1] <= 9985
 PM[B44,B31,0]: - c[B31,0] + c[B44,0] + 100 delta[B44,B31,0] <= 83
 PM[B44,B31,1]: - c[B31,1] + c[B44,1] + 10000 delta[B44,B31,1] <= 9986.5
 PM[B44,B32,0]: - c[B32,0] + c[B44,0] + 100 delta[B44,B32,0] <= 76
 PM[B44,B32,1]: - c[B32,1] + c[B44,1] + 10000 delta[B44,B32,1] <= 9986.5
 PM[B44,B33,0]: - c[B33,0] + c[B44,0] + 100 delta[B44,B33,0] <= 75.5
 PM[B44,B33,1]: - c[B33,1] + c[B44,1] + 10000 delta[B44,B33,1] <= 9992
 PM[B44,B34,0]: - c[B34,0] + c[B44,0] + 100 delta[B44,B34,0] <= 89.5
 PM[B44,B34,1]: - c[B34,1] + c[B44,1] + 10000 delta[B44,B34,1] <= 9988.5
 PM[B44,B35,0]: - c[B35,0] + c[B44,0] + 100 delta[B44,B35,0] <= 77
 PM[B44,B35,1]: - c[B35,1] + c[B44,1] + 10000 delta[B44,B35,1] <= 9981.5
 PM[B44,B36,0]: - c[B36,0] + c[B44,0] + 100 delta[B44,B36,0] <= 87
 PM[B44,B36,1]: - c[B36,1] + c[B44,1] + 10000 delta[B44,B36,1] <= 9989.5
 PM[B44,B37,0]: - c[B37,0] + c[B44,0] + 100 delta[B44,B37,0] <= 84
 PM[B44,B37,1]: - c[B37,1] + c[B44,1] + 10000 delta[B44,B37,1] <= 9991.5
 PM[B44,B38,0]: - c[B38,0] + c[B44,0] + 100 delta[B44,B38,0] <= 75.5
 PM[B44,B38,1]: - c[B38,1] + c[B44,1] + 10000 delta[B44,B38,1] <= 9988.5
 PM[B44,B39,0]: - c[B39,0] + c[B44,0] + 100 delta[B44,B39,0] <= 73
 PM[B44,B39,1]: - c[B39,1] + c[B44,1] + 10000 delta[B44,B39,1] <= 9984.5
 PM[B44,B40,0]: - c[B40,0] + c[B44,0] + 100 delta[B44,B40,0] <= 78
 PM[B44,B40,1]: - c[B40,1] + c[B44,1] + 10000 delta[B44,B40,1] <= 9992
 PM[B44,B41,0]: - c[B41,0] + c[B44,0] + 100 delta[B44,B41,0] <= 87.5
 PM[B44,B41,1]: - c[B41,1] + c[B44,1] + 10000 delta[B44,B41,1] <= 9990
 PM[B44,B42,0]: - c[B42,0] + c[B44,0] + 100 delta[B44,B42,0] <= 84.5
 PM[B44,B42,1]: - c[B42,1] + c[B44,1] + 10000 delta[B44,B42,1] <= 9975.5
 PM[B44,B43,0]: - c[B43,0] + c[B44,0] + 100 delta[B44,B43,0] <= 79
 PM[B44,B43,1]: - c[B43,1] + c[B44,1] + 10000 delta[B44,B43,1] <= 9984.5
 PM[B44,B45,0]: c[B44,0] - c[B45,0] + 100 delta[B44,B45,0] <= 87
 PM[B44,B45,1]: c[B44,1] - c[B45,1] + 10000 delta[B44,B45,1] <= 9978
 PM[B44,B46,0]: c[B44,0] - c[B46,0] + 100 delta[B44,B46,0] <= 79.5
 PM[B44,B46,1]: c[B44,1] - c[B46,1] + 10000 delta[B44,B46,1] <= 9991.5
 PM[B44,B47,0]: c[B44,0] - c[B47,0] + 100 delta[B44,B47,0] <= 86
 PM[B44,B47,1]: c[B44,1] - c[B47,1] + 10000 delta[B44,B47,1] <= 9989.5
 PM[B44,B48,0]: c[B44,0] - c[B48,0] + 100 delta[B44,B48,0] <= 84.5
 PM[B44,B48,1]: c[B44,1] - c[B48,1] + 10000 delta[B44,B48,1] <= 9990.5
 PM[B44,B49,0]: c[B44,0] - c[B49,0] + 100 delta[B44,B49,0] <= 86
 PM[B44,B49,1]: c[B44,1] - c[B49,1] + 10000 delta[B44,B49,1] <= 9987.5
 PM[B45,B0,0]: - c[B0,0] + c[B45,0] + 100 delta[B45,B0,0] <= 90.5
 PM[B45,B0,1]: - c[B0,1] + c[B45,1] + 9996 delta[B45,B0,1] <= 9977.5
 PM[B45,B1,0]: - c[B1,0] + c[B45,0] + 100 delta[B45,B1,0] <= 73
 PM[B45,B1,1]: - c[B1,1] + c[B45,1] + 10000 delta[B45,B1,1] <= 9982.5
 PM[B45,B2,0]: - c[B2,0] + c[B45,0] + 100 delta[B45,B2,0] <= 92
 PM[B45,B2,1]: - c[B2,1] + c[B45,1] + 10000 delta[B45,B2,1] <= 9983.5
 PM[B45,B3,0]: - c[B3,0] + c[B45,0] + 100 delta[B45,B3,0] <= 77
 PM[B45,B3,1]: - c[B3,1] + c[B45,1] + 9996 delta[B45,B3,1] <= 9978.5
 PM[B45,B4,0]: - c[B4,0] + c[B45,0] + 100 delta[B45,B4,0] <= 92
 PM[B45,B4,1]: - c[B4,1] + c[B45,1] + 10000 delta[B45,B4,1] <= 9982.5
 PM[B45,B5,0]: - c[B5,0] + c[B45,0] + 100 delta[B45,B5,0] <= 92
 PM[B45,B5,1]: - c[B5,1] + c[B45,1] + 10000 delta[B45,B5,1] <= 9986
 PM[B45,B6,0]: - c[B6,0] + c[B45,0] + 100 delta[B45,B6,0] <= 87.5
 PM[B45,B6,1]: - c[B6,1] + c[B45,1] + 10000 delta[B45,B6,1] <= 9985
 PM[B45,B7,0]: - c[B7,0] + c[B45,0] + 100 delta[B45,B7,0] <= 82.5
 PM[B45,B7,1]: - c[B7,1] + c[B45,1] + 10000 delta[B45,B7,1] <= 9985
 PM[B45,B8,0]: - c[B8,0] + c[B45,0] + 100 delta[B45,B8,0] <= 85.5
 PM[B45,B8,1]: - c[B8,1] + c[B45,1] + 9997 delta[B45,B8,1] <= 9978
 PM[B45,B9,0]: - c[B9,0] + c[B45,0] + 100 delta[B45,B9,0] <= 88.5
 PM[B45,B9,1]: - c[B9,1] + c[B45,1] + 10000 delta[B45,B9,1] <= 9984.5
 PM[B45,B10,0]: - c[B10,0] + c[B45,0] + 100 delta[B45,B10,0] <= 90
 PM[B45,B10,1]: - c[B10,1] + c[B45,1] + 10000 delta[B45,B10,1] <= 9984
 PM[B45,B11,0]: - c[B11,0] + c[B45,0] + 100 delta[B45,B11,0] <= 86.5
 PM[B45,B11,1]: - c[B11,1] + c[B45,1] + 9996 delta[B45,B11,1] <= 9978
 PM[B45,B12,0]: - c[B12,0] + c[B45,0] + 100 delta[B45,B12,0] <= 85.5
 PM[B45,B12,1]: - c[B12,1] + c[B45,1] + 9999 delta[B45,B12,1] <= 9982
 PM[B45,B13,0]: - c[B13,0] + c[B45,0] + 100 delta[B45,B13,0] <= 85
 PM[B45,B13,1]: - c[B13,1] + c[B45,1] + 10000 delta[B45,B13,1] <= 9985
 PM[B45,B14,0]: - c[B14,0] + c[B45,0] + 100 delta[B45,B14,0] <= 86
 PM[B45,B14,1]: - c[B14,1] + c[B45,1] + 9997 delta[B45,B14,1] <= 9981.5
 PM[B45,B15,0]: - c[B15,0] + c[B45,0] + 100 delta[B45,B15,0] <= 87
 PM[B45,B15,1]: - c[B15,1] + c[B45,1] + 9996 delta[B45,B15,1] <= 9973
 PM[B45,B16,0]: - c[B16,0] + c[B45,0] + 100 delta[B45,B16,0] <= 88.5
 PM[B45,B16,1]: - c[B16,1] + c[B45,1] + 9996 delta[B45,B16,1] <= 9980
 PM[B45,B17,0]: - c[B17,0] + c[B45,0] + 100 delta[B45,B17,0] <= 79
 PM[B45,B17,1]: - c[B17,1] + c[B45,1] + 9996 delta[B45,B17,1] <= 9963.5
 PM[B45,B18,0]: - c[B18,0] + c[B45,0] + 100 delta[B45,B18,0] <= 81
 PM[B45,B18,1]: - c[B18,1] + c[B45,1] + 10000 delta[B45,B18,1] <= 9985.5
 PM[B45,B19,0]: - c[B19,0] + c[B45,0] + 100 delta[B45,B19,0] <= 88.5
 PM[B45,B19,1]: - c[B19,1] + c[B45,1] + 10000 delta[B45,B19,1] <= 9984
 PM[B45,B20,0]: - c[B20,0] + c[B45,0] + 100 delta[B45,B20,0] <= 87
 PM[B45,B20,1]: - c[B20,1] + c[B45,1] + 9996 delta[B45,B20,1] <= 9974
 PM[B45,B21,0]: - c[B21,0] + c[B45,0] + 100 delta[B45,B21,0] <= 84
 PM[B45,B21,1]: - c[B21,1] + c[B45,1] + 9996 delta[B45,B21,1] <= 9979
 PM[B45,B22,0]: - c[B22,0] + c[B45,0] + 100 delta[B45,B22,0] <= 90.5
 PM[B45,B22,1]: - c[B22,1] + c[B45,1] + 9996 delta[B45,B22,1] <= 9969
 PM[B45,B23,0]: - c[B23,0] + c[B45,0] + 100 delta[B45,B23,0] <= 91
 PM[B45,B23,1]: - c[B23,1] + c[B45,1] + 10000 delta[B45,B23,1] <= 9981
 PM[B45,B24,0]: - c[B24,0] + c[B45,0] + 100 delta[B45,B24,0] <= 81
 PM[B45,B24,1]: - c[B24,1] + c[B45,1] + 9996 delta[B45,B24,1] <= 9966.5
 PM[B45,B25,0]: - c[B25,0] + c[B45,0] + 100 delta[B45,B25,0] <= 87
 PM[B45,B25,1]: - c[B25,1] + c[B45,1] + 10000 delta[B45,B25,1] <= 9984.5
 PM[B45,B26,0]: - c[B26,0] + c[B45,0] + 100 delta[B45,B26,0] <= 91.5
 PM[B45,B26,1]: - c[B26,1] + c[B45,1] + 10000 delta[B45,B26,1] <= 9985.5
 PM[B45,B27,0]: - c[B27,0] + c[B45,0] + 100 delta[B45,B27,0] <= 90
 PM[B45,B27,1]: - c[B27,1] + c[B45,1] + 9998 delta[B45,B27,1] <= 9977.5
 PM[B45,B28,0]: - c[B28,0] + c[B45,0] + 100 delta[B45,B28,0] <= 86.5
 PM[B45,B28,1]: - c[B28,1] + c[B45,1] + 10000 delta[B45,B28,1] <= 9985.5
 PM[B45,B29,0]: - c[B29,0] + c[B45,0] + 100 delta[B45,B29,0] <= 76
 PM[B45,B29,1]: - c[B29,1] + c[B45,1] + 9996 delta[B45,B29,1] <= 9974.5
 PM[B45,B30,0]: - c[B30,0] + c[B45,0] + 100 delta[B45,B30,0] <= 89
 PM[B45,B30,1]: - c[B30,1] + c[B45,1] + 10000 delta[B45,B30,1] <= 9979
 PM[B45,B31,0]: - c[B31,0] + c[B45,0] + 100 delta[B45,B31,0] <= 86
 PM[B45,B31,1]: - c[B31,1] + c[B45,1] + 10000 delta[B45,B31,1] <= 9980.5
 PM[B45,B32,0]: - c[B32,0] + c[B45,0] + 100 delta[B45,B32,0] <= 79
 PM[B45,B32,1]: - c[B32,1] + c[B45,1] + 9996 delta[B45,B32,1] <= 9980.5
 PM[B45,B33,0]: - c[B33,0] + c[B45,0] + 100 delta[B45,B33,0] <= 78.5
 PM[B45,B33,1]: - c[B33,1] + c[B45,1] + 10000 delta[B45,B33,1] <= 9986
 PM[B45,B34,0]: - c[B34,0] + c[B45,0] + 100 delta[B45,B34,0] <= 92.5
 PM[B45,B34,1]: - c[B34,1] + c[B45,1] + 10000 delta[B45,B34,1] <= 9982.5
 PM[B45,B35,0]: - c[B35,0] + c[B45,0] + 100 delta[B45,B35,0] <= 80
 PM[B45,B35,1]: - c[B35,1] + c[B45,1] + 9996 delta[B45,B35,1] <= 9975.5
 PM[B45,B36,0]: - c[B36,0] + c[B45,0] + 100 delta[B45,B36,0] <= 90
 PM[B45,B36,1]: - c[B36,1] + c[B45,1] + 10000 delta[B45,B36,1] <= 9983.5
 PM[B45,B37,0]: - c[B37,0] + c[B45,0] + 100 delta[B45,B37,0] <= 87
 PM[B45,B37,1]: - c[B37,1] + c[B45,1] + 10000 delta[B45,B37,1] <= 9985.5
 PM[B45,B38,0]: - c[B38,0] + c[B45,0] + 100 delta[B45,B38,0] <= 78.5
 PM[B45,B38,1]: - c[B38,1] + c[B45,1] + 10000 delta[B45,B38,1] <= 9982.5
 PM[B45,B39,0]: - c[B39,0] + c[B45,0] + 100 delta[B45,B39,0] <= 76
 PM[B45,B39,1]: - c[B39,1] + c[B45,1] + 10000 delta[B45,B39,1] <= 9978.5
 PM[B45,B40,0]: - c[B40,0] + c[B45,0] + 100 delta[B45,B40,0] <= 81
 PM[B45,B40,1]: - c[B40,1] + c[B45,1] + 10000 delta[B45,B40,1] <= 9986
 PM[B45,B41,0]: - c[B41,0] + c[B45,0] + 100 delta[B45,B41,0] <= 90.5
 PM[B45,B41,1]: - c[B41,1] + c[B45,1] + 10000 delta[B45,B41,1] <= 9984
 PM[B45,B42,0]: - c[B42,0] + c[B45,0] + 100 delta[B45,B42,0] <= 87.5
 PM[B45,B42,1]: - c[B42,1] + c[B45,1] + 9996 delta[B45,B42,1] <= 9969.5
 PM[B45,B43,0]: - c[B43,0] + c[B45,0] + 100 delta[B45,B43,0] <= 82
 PM[B45,B43,1]: - c[B43,1] + c[B45,1] + 9996 delta[B45,B43,1] <= 9978.5
 PM[B45,B44,0]: - c[B44,0] + c[B45,0] + 100 delta[B45,B44,0] <= 87
 PM[B45,B44,1]: - c[B44,1] + c[B45,1] + 9996 delta[B45,B44,1] <= 9979
 PM[B45,B46,0]: c[B45,0] - c[B46,0] + 100 delta[B45,B46,0] <= 82.5
 PM[B45,B46,1]: c[B45,1] - c[B46,1] + 10000 delta[B45,B46,1] <= 9985.5
 PM[B45,B47,0]: c[B45,0] - c[B47,0] + 100 delta[B45,B47,0] <= 89
 PM[B45,B47,1]: c[B45,1] - c[B47,1] + 10000 delta[B45,B47,1] <= 9983.5
 PM[B45,B48,0]: c[B45,0] - c[B48,0] + 100 delta[B45,B48,0] <= 87.5
 PM[B45,B48,1]: c[B45,1] - c[B48,1] + 10000 delta[B45,B48,1] <= 9984.5
 PM[B45,B49,0]: c[B45,0] - c[B49,0] + 100 delta[B45,B49,0] <= 89
 PM[B45,B49,1]: c[B45,1] - c[B49,1] + 9996 delta[B45,B49,1] <= 9981.5
 PM[B46,B0,0]: - c[B0,0] + c[B46,0] + 100 delta[B46,B0,0] <= 91
 PM[B46,B0,1]: - c[B0,1] + c[B46,1] + 9997 delta[B46,B0,1] <= 9982
 PM[B46,B1,0]: - c[B1,0] + c[B46,0] + 100 delta[B46,B1,0] <= 73.5
 PM[B46,B1,1]: - c[B1,1] + c[B46,1] + 10000 delta[B46,B1,1] <= 9987
 PM[B46,B2,0]: - c[B2,0] + c[B46,0] + 100 delta[B46,B2,0] <= 92.5
 PM[B46,B2,1]: - c[B2,1] + c[B46,1] + 10000 delta[B46,B2,1] <= 9988
 PM[B46,B3,0]: - c[B3,0] + c[B46,0] + 100 delta[B46,B3,0] <= 77.5
 PM[B46,B3,1]: - c[B3,1] + c[B46,1] + 9997 delta[B46,B3,1] <= 9983
 PM[B46,B4,0]: - c[B4,0] + c[B46,0] + 100 delta[B46,B4,0] <= 92.5
 PM[B46,B4,1]: - c[B4,1] + c[B46,1] + 10000 delta[B46,B4,1] <= 9987
 PM[B46,B5,0]: - c[B5,0] + c[B46,0] + 100 delta[B46,B5,0] <= 92.5
 PM[B46,B5,1]: - c[B5,1] + c[B46,1] + 10000 delta[B46,B5,1] <= 9990.5
 PM[B46,B6,0]: - c[B6,0] + c[B46,0] + 100 delta[B46,B6,0] <= 88
 PM[B46,B6,1]: - c[B6,1] + c[B46,1] + 10000 delta[B46,B6,1] <= 9989.5
 PM[B46,B7,0]: - c[B7,0] + c[B46,0] + 100 delta[B46,B7,0] <= 83
 PM[B46,B7,1]: - c[B7,1] + c[B46,1] + 10000 delta[B46,B7,1] <= 9989.5
 PM[B46,B8,0]: - c[B8,0] + c[B46,0] + 100 delta[B46,B8,0] <= 86
 PM[B46,B8,1]: - c[B8,1] + c[B46,1] + 9997 delta[B46,B8,1] <= 9982.5
 PM[B46,B9,0]: - c[B9,0] + c[B46,0] + 100 delta[B46,B9,0] <= 89
 PM[B46,B9,1]: - c[B9,1] + c[B46,1] + 10000 delta[B46,B9,1] <= 9989
 PM[B46,B10,0]: - c[B10,0] + c[B46,0] + 100 delta[B46,B10,0] <= 90.5
 PM[B46,B10,1]: - c[B10,1] + c[B46,1] + 10000 delta[B46,B10,1] <= 9988.5
 PM[B46,B11,0]: - c[B11,0] + c[B46,0] + 100 delta[B46,B11,0] <= 87
 PM[B46,B11,1]: - c[B11,1] + c[B46,1] + 9997 delta[B46,B11,1] <= 9982.5
 PM[B46,B12,0]: - c[B12,0] + c[B46,0] + 100 delta[B46,B12,0] <= 86
 PM[B46,B12,1]: - c[B12,1] + c[B46,1] + 9999 delta[B46,B12,1] <= 9986.5
 PM[B46,B13,0]: - c[B13,0] + c[B46,0] + 100 delta[B46,B13,0] <= 85.5
 PM[B46,B13,1]: - c[B13,1] + c[B46,1] + 10000 delta[B46,B13,1] <= 9989.5
 PM[B46,B14,0]: - c[B14,0] + c[B46,0] + 100 delta[B46,B14,0] <= 86.5
 PM[B46,B14,1]: - c[B14,1] + c[B46,1] + 9997 delta[B46,B14,1] <= 9986
 PM[B46,B15,0]: - c[B15,0] + c[B46,0] + 100 delta[B46,B15,0] <= 87.5
 PM[B46,B15,1]: - c[B15,1] + c[B46,1] + 9997 delta[B46,B15,1] <= 9977.5
 PM[B46,B16,0]: - c[B16,0] + c[B46,0] + 100 delta[B46,B16,0] <= 89
 PM[B46,B16,1]: - c[B16,1] + c[B46,1] + 9997 delta[B46,B16,1] <= 9984.5
 PM[B46,B17,0]: - c[B17,0] + c[B46,0] + 100 delta[B46,B17,0] <= 79.5
 PM[B46,B17,1]: - c[B17,1] + c[B46,1] + 9997 delta[B46,B17,1] <= 9968
 PM[B46,B18,0]: - c[B18,0] + c[B46,0] + 100 delta[B46,B18,0] <= 81.5
 PM[B46,B18,1]: - c[B18,1] + c[B46,1] + 10000 delta[B46,B18,1] <= 9990
 PM[B46,B19,0]: - c[B19,0] + c[B46,0] + 100 delta[B46,B19,0] <= 89
 PM[B46,B19,1]: - c[B19,1] + c[B46,1] + 10000 delta[B46,B19,1] <= 9988.5
 PM[B46,B20,0]: - c[B20,0] + c[B46,0] + 100 delta[B46,B20,0] <= 87.5
 PM[B46,B20,1]: - c[B20,1] + c[B46,1] + 9997 delta[B46,B20,1] <= 9978.5
 PM[B46,B21,0]: - c[B21,0] + c[B46,0] + 100 delta[B46,B21,0] <= 84.5
 PM[B46,B21,1]: - c[B21,1] + c[B46,1] + 9997 delta[B46,B21,1] <= 9983.5
 PM[B46,B22,0]: - c[B22,0] + c[B46,0] + 100 delta[B46,B22,0] <= 91
 PM[B46,B22,1]: - c[B22,1] + c[B46,1] + 9997 delta[B46,B22,1] <= 9973.5
 PM[B46,B23,0]: - c[B23,0] + c[B46,0] + 100 delta[B46,B23,0] <= 91.5
 PM[B46,B23,1]: - c[B23,1] + c[B46,1] + 10000 delta[B46,B23,1] <= 9985.5
 PM[B46,B24,0]: - c[B24,0] + c[B46,0] + 100 delta[B46,B24,0] <= 81.5
 PM[B46,B24,1]: - c[B24,1] + c[B46,1] + 9997 delta[B46,B24,1] <= 9971
 PM[B46,B25,0]: - c[B25,0] + c[B46,0] + 100 delta[B46,B25,0] <= 87.5
 PM[B46,B25,1]: - c[B25,1] + c[B46,1] + 10000 delta[B46,B25,1] <= 9989
 PM[B46,B26,0]: - c[B26,0] + c[B46,0] + 100 delta[B46,B26,0] <= 92
 PM[B46,B26,1]: - c[B26,1] + c[B46,1] + 10000 delta[B46,B26,1] <= 9990
 PM[B46,B27,0]: - c[B27,0] + c[B46,0] + 100 delta[B46,B27,0] <= 90.5
 PM[B46,B27,1]: - c[B27,1] + c[B46,1] + 9998 delta[B46,B27,1] <= 9982
 PM[B46,B28,0]: - c[B28,0] + c[B46,0] + 100 delta[B46,B28,0] <= 87
 PM[B46,B28,1]: - c[B28,1] + c[B46,1] + 10000 delta[B46,B28,1] <= 9990
 PM[B46,B29,0]: - c[B29,0] + c[B46,0] + 100 delta[B46,B29,0] <= 76.5
 PM[B46,B29,1]: - c[B29,1] + c[B46,1] + 9997 delta[B46,B29,1] <= 9979
 PM[B46,B30,0]: - c[B30,0] + c[B46,0] + 100 delta[B46,B30,0] <= 89.5
 PM[B46,B30,1]: - c[B30,1] + c[B46,1] + 10000 delta[B46,B30,1] <= 9983.5
 PM[B46,B31,0]: - c[B31,0] + c[B46,0] + 100 delta[B46,B31,0] <= 86.5
 PM[B46,B31,1]: - c[B31,1] + c[B46,1] + 10000 delta[B46,B31,1] <= 9985
 PM[B46,B32,0]: - c[B32,0] + c[B46,0] + 100 delta[B46,B32,0] <= 79.5
 PM[B46,B32,1]: - c[B32,1] + c[B46,1] + 9997 delta[B46,B32,1] <= 9985
 PM[B46,B33,0]: - c[B33,0] + c[B46,0] + 100 delta[B46,B33,0] <= 79
 PM[B46,B33,1]: - c[B33,1] + c[B46,1] + 10000 delta[B46,B33,1] <= 9990.5
 PM[B46,B34,0]: - c[B34,0] + c[B46,0] + 100 delta[B46,B34,0] <= 93
 PM[B46,B34,1]: - c[B34,1] + c[B46,1] + 10000 delta[B46,B34,1] <= 9987
 PM[B46,B35,0]: - c[B35,0] + c[B46,0] + 100 delta[B46,B35,0] <= 80.5
 PM[B46,B35,1]: - c[B35,1] + c[B46,1] + 9997 delta[B46,B35,1] <= 9980
 PM[B46,B36,0]: - c[B36,0] + c[B46,0] + 100 delta[B46,B36,0] <= 90.5
 PM[B46,B36,1]: - c[B36,1] + c[B46,1] + 10000 delta[B46,B36,1] <= 9988
 PM[B46,B37,0]: - c[B37,0] + c[B46,0] + 100 delta[B46,B37,0] <= 87.5
 PM[B46,B37,1]: - c[B37,1] + c[B46,1] + 10000 delta[B46,B37,1] <= 9990
 PM[B46,B38,0]: - c[B38,0] + c[B46,0] + 100 delta[B46,B38,0] <= 79
 PM[B46,B38,1]: - c[B38,1] + c[B46,1] + 10000 delta[B46,B38,1] <= 9987
 PM[B46,B39,0]: - c[B39,0] + c[B46,0] + 100 delta[B46,B39,0] <= 76.5
 PM[B46,B39,1]: - c[B39,1] + c[B46,1] + 10000 delta[B46,B39,1] <= 9983
 PM[B46,B40,0]: - c[B40,0] + c[B46,0] + 100 delta[B46,B40,0] <= 81.5
 PM[B46,B40,1]: - c[B40,1] + c[B46,1] + 10000 delta[B46,B40,1] <= 9990.5
 PM[B46,B41,0]: - c[B41,0] + c[B46,0] + 100 delta[B46,B41,0] <= 91
 PM[B46,B41,1]: - c[B41,1] + c[B46,1] + 10000 delta[B46,B41,1] <= 9988.5
 PM[B46,B42,0]: - c[B42,0] + c[B46,0] + 100 delta[B46,B42,0] <= 88
 PM[B46,B42,1]: - c[B42,1] + c[B46,1] + 9997 delta[B46,B42,1] <= 9974
 PM[B46,B43,0]: - c[B43,0] + c[B46,0] + 100 delta[B46,B43,0] <= 82.5
 PM[B46,B43,1]: - c[B43,1] + c[B46,1] + 9997 delta[B46,B43,1] <= 9983
 PM[B46,B44,0]: - c[B44,0] + c[B46,0] + 100 delta[B46,B44,0] <= 87.5
 PM[B46,B44,1]: - c[B44,1] + c[B46,1] + 9997 delta[B46,B44,1] <= 9983.5
 PM[B46,B45,0]: - c[B45,0] + c[B46,0] + 100 delta[B46,B45,0] <= 90.5
 PM[B46,B45,1]: - c[B45,1] + c[B46,1] + 9997 delta[B46,B45,1] <= 9976.5
 PM[B46,B47,0]: c[B46,0] - c[B47,0] + 100 delta[B46,B47,0] <= 89.5
 PM[B46,B47,1]: c[B46,1] - c[B47,1] + 10000 delta[B46,B47,1] <= 9988
 PM[B46,B48,0]: c[B46,0] - c[B48,0] + 100 delta[B46,B48,0] <= 88
 PM[B46,B48,1]: c[B46,1] - c[B48,1] + 10000 delta[B46,B48,1] <= 9989
 PM[B46,B49,0]: c[B46,0] - c[B49,0] + 100 delta[B46,B49,0] <= 89.5
 PM[B46,B49,1]: c[B46,1] - c[B49,1] + 9997 delta[B46,B49,1] <= 9986
 PM[B47,B0,0]: - c[B0,0] + c[B47,0] + 100 delta[B47,B0,0] <= 89.5
 PM[B47,B0,1]: - c[B0,1] + c[B47,1] + 9994 delta[B47,B0,1] <= 9975
 PM[B47,B1,0]: - c[B1,0] + c[B47,0] + 100 delta[B47,B1,0] <= 72
 PM[B47,B1,1]: - c[B1,1] + c[B47,1] + 10000 delta[B47,B1,1] <= 9980
 PM[B47,B2,0]: - c[B2,0] + c[B47,0] + 100 delta[B47,B2,0] <= 91
 PM[B47,B2,1]: - c[B2,1] + c[B47,1] + 10000 delta[B47,B2,1] <= 9981
 PM[B47,B3,0]: - c[B3,0] + c[B47,0] + 100 delta[B47,B3,0] <= 76
 PM[B47,B3,1]: - c[B3,1] + c[B47,1] + 9996 delta[B47,B3,1] <= 9976
 PM[B47,B4,0]: - c[B4,0] + c[B47,0] + 100 delta[B47,B4,0] <= 91
 PM[B47,B4,1]: - c[B4,1] + c[B47,1] + 10000 delta[B47,B4,1] <= 9980
 PM[B47,B5,0]: - c[B5,0] + c[B47,0] + 100 delta[B47,B5,0] <= 91
 PM[B47,B5,1]: - c[B5,1] + c[B47,1] + 10000 delta[B47,B5,1] <= 9983.5
 PM[B47,B6,0]: - c[B6,0] + c[B47,0] + 100 delta[B47,B6,0] <= 86.5
 PM[B47,B6,1]: - c[B6,1] + c[B47,1] + 10000 delta[B47,B6,1] <= 9982.5
 PM[B47,B7,0]: - c[B7,0] + c[B47,0] + 100 delta[B47,B7,0] <= 81.5
 PM[B47,B7,1]: - c[B7,1] + c[B47,1] + 10000 delta[B47,B7,1] <= 9982.5
 PM[B47,B8,0]: - c[B8,0] + c[B47,0] + 100 delta[B47,B8,0] <= 84.5
 PM[B47,B8,1]: - c[B8,1] + c[B47,1] + 9997 delta[B47,B8,1] <= 9975.5
 PM[B47,B9,0]: - c[B9,0] + c[B47,0] + 100 delta[B47,B9,0] <= 87.5
 PM[B47,B9,1]: - c[B9,1] + c[B47,1] + 10000 delta[B47,B9,1] <= 9982
 PM[B47,B10,0]: - c[B10,0] + c[B47,0] + 100 delta[B47,B10,0] <= 89
 PM[B47,B10,1]: - c[B10,1] + c[B47,1] + 10000 delta[B47,B10,1] <= 9981.5
 PM[B47,B11,0]: - c[B11,0] + c[B47,0] + 100 delta[B47,B11,0] <= 85.5
 PM[B47,B11,1]: - c[B11,1] + c[B47,1] + 9994 delta[B47,B11,1] <= 9975.5
 PM[B47,B12,0]: - c[B12,0] + c[B47,0] + 100 delta[B47,B12,0] <= 84.5
 PM[B47,B12,1]: - c[B12,1] + c[B47,1] + 9999 delta[B47,B12,1] <= 9979.5
 PM[B47,B13,0]: - c[B13,0] + c[B47,0] + 100 delta[B47,B13,0] <= 84
 PM[B47,B13,1]: - c[B13,1] + c[B47,1] + 10000 delta[B47,B13,1] <= 9982.5
 PM[B47,B14,0]: - c[B14,0] + c[B47,0] + 100 delta[B47,B14,0] <= 85
 PM[B47,B14,1]: - c[B14,1] + c[B47,1] + 9997 delta[B47,B14,1] <= 9979
 PM[B47,B15,0]: - c[B15,0] + c[B47,0] + 100 delta[B47,B15,0] <= 86
 PM[B47,B15,1]: - c[B15,1] + c[B47,1] + 9992 delta[B47,B15,1] <= 9970.5
 PM[B47,B16,0]: - c[B16,0] + c[B47,0] + 100 delta[B47,B16,0] <= 87.5
 PM[B47,B16,1]: - c[B16,1] + c[B47,1] + 9995 delta[B47,B16,1] <= 9977.5
 PM[B47,B17,0]: - c[B17,0] + c[B47,0] + 100 delta[B47,B17,0] <= 78
 PM[B47,B17,1]: - c[B17,1] + c[B47,1] + 9992 delta[B47,B17,1] <= 9961
 PM[B47,B18,0]: - c[B18,0] + c[B47,0] + 100 delta[B47,B18,0] <= 80
 PM[B47,B18,1]: - c[B18,1] + c[B47,1] + 10000 delta[B47,B18,1] <= 9983
 PM[B47,B19,0]: - c[B19,0] + c[B47,0] + 100 delta[B47,B19,0] <= 87.5
 PM[B47,B19,1]: - c[B19,1] + c[B47,1] + 10000 delta[B47,B19,1] <= 9981.5
 PM[B47,B20,0]: - c[B20,0] + c[B47,0] + 100 delta[B47,B20,0] <= 86
 PM[B47,B20,1]: - c[B20,1] + c[B47,1] + 9992 delta[B47,B20,1] <= 9971.5
 PM[B47,B21,0]: - c[B21,0] + c[B47,0] + 100 delta[B47,B21,0] <= 83
 PM[B47,B21,1]: - c[B21,1] + c[B47,1] + 9994 delta[B47,B21,1] <= 9976.5
 PM[B47,B22,0]: - c[B22,0] + c[B47,0] + 100 delta[B47,B22,0] <= 89.5
 PM[B47,B22,1]: - c[B22,1] + c[B47,1] + 9992 delta[B47,B22,1] <= 9966.5
 PM[B47,B23,0]: - c[B23,0] + c[B47,0] + 100 delta[B47,B23,0] <= 90
 PM[B47,B23,1]: - c[B23,1] + c[B47,1] + 10000 delta[B47,B23,1] <= 9978.5
 PM[B47,B24,0]: - c[B24,0] + c[B47,0] + 100 delta[B47,B24,0] <= 80
 PM[B47,B24,1]: - c[B24,1] + c[B47,1] + 9992 delta[B47,B24,1] <= 9964
 PM[B47,B25,0]: - c[B25,0] + c[B47,0] + 100 delta[B47,B25,0] <= 86
 PM[B47,B25,1]: - c[B25,1] + c[B47,1] + 10000 delta[B47,B25,1] <= 9982
 PM[B47,B26,0]: - c[B26,0] + c[B47,0] + 100 delta[B47,B26,0] <= 90.5
 PM[B47,B26,1]: - c[B26,1] + c[B47,1] + 10000 delta[B47,B26,1] <= 9983
 PM[B47,B27,0]: - c[B27,0] + c[B47,0] + 100 delta[B47,B27,0] <= 89
 PM[B47,B27,1]: - c[B27,1] + c[B47,1] + 9998 delta[B47,B27,1] <= 9975
 PM[B47,B28,0]: - c[B28,0] + c[B47,0] + 100 delta[B47,B28,0] <= 85.5
 PM[B47,B28,1]: - c[B28,1] + c[B47,1] + 10000 delta[B47,B28,1] <= 9983
 PM[B47,B29,0]: - c[B29,0] + c[B47,0] + 100 delta[B47,B29,0] <= 75
 PM[B47,B29,1]: - c[B29,1] + c[B47,1] + 9993 delta[B47,B29,1] <= 9972
 PM[B47,B30,0]: - c[B30,0] + c[B47,0] + 100 delta[B47,B30,0] <= 88
 PM[B47,B30,1]: - c[B30,1] + c[B47,1] + 10000 delta[B47,B30,1] <= 9976.5
 PM[B47,B31,0]: - c[B31,0] + c[B47,0] + 100 delta[B47,B31,0] <= 85
 PM[B47,B31,1]: - c[B31,1] + c[B47,1] + 10000 delta[B47,B31,1] <= 9978
 PM[B47,B32,0]: - c[B32,0] + c[B47,0] + 100 delta[B47,B32,0] <= 78
 PM[B47,B32,1]: - c[B32,1] + c[B47,1] + 9996 delta[B47,B32,1] <= 9978
 PM[B47,B33,0]: - c[B33,0] + c[B47,0] + 100 delta[B47,B33,0] <= 77.5
 PM[B47,B33,1]: - c[B33,1] + c[B47,1] + 10000 delta[B47,B33,1] <= 9983.5
 PM[B47,B34,0]: - c[B34,0] + c[B47,0] + 100 delta[B47,B34,0] <= 91.5
 PM[B47,B34,1]: - c[B34,1] + c[B47,1] + 10000 delta[B47,B34,1] <= 9980
 PM[B47,B35,0]: - c[B35,0] + c[B47,0] + 100 delta[B47,B35,0] <= 79
 PM[B47,B35,1]: - c[B35,1] + c[B47,1] + 9992 delta[B47,B35,1] <= 9973
 PM[B47,B36,0]: - c[B36,0] + c[B47,0] + 100 delta[B47,B36,0] <= 89
 PM[B47,B36,1]: - c[B36,1] + c[B47,1] + 10000 delta[B47,B36,1] <= 9981
 PM[B47,B37,0]: - c[B37,0] + c[B47,0] + 100 delta[B47,B37,0] <= 86
 PM[B47,B37,1]: - c[B37,1] + c[B47,1] + 10000 delta[B47,B37,1] <= 9983
 PM[B47,B38,0]: - c[B38,0] + c[B47,0] + 100 delta[B47,B38,0] <= 77.5
 PM[B47,B38,1]: - c[B38,1] + c[B47,1] + 10000 delta[B47,B38,1] <= 9980
 PM[B47,B39,0]: - c[B39,0] + c[B47,0] + 100 delta[B47,B39,0] <= 75
 PM[B47,B39,1]: - c[B39,1] + c[B47,1] + 10000 delta[B47,B39,1] <= 9976
 PM[B47,B40,0]: - c[B40,0] + c[B47,0] + 100 delta[B47,B40,0] <= 80
 PM[B47,B40,1]: - c[B40,1] + c[B47,1] + 10000 delta[B47,B40,1] <= 9983.5
 PM[B47,B41,0]: - c[B41,0] + c[B47,0] + 100 delta[B47,B41,0] <= 89.5
 PM[B47,B41,1]: - c[B41,1] + c[B47,1] + 10000 delta[B47,B41,1] <= 9981.5
 PM[B47,B42,0]: - c[B42,0] + c[B47,0] + 100 delta[B47,B42,0] <= 86.5
 PM[B47,B42,1]: - c[B42,1] + c[B47,1] + 9992 delta[B47,B42,1] <= 9967
 PM[B47,B43,0]: - c[B43,0] + c[B47,0] + 100 delta[B47,B43,0] <= 81
 PM[B47,B43,1]: - c[B43,1] + c[B47,1] + 9994 delta[B47,B43,1] <= 9976
 PM[B47,B44,0]: - c[B44,0] + c[B47,0] + 100 delta[B47,B44,0] <= 86
 PM[B47,B44,1]: - c[B44,1] + c[B47,1] + 9995 delta[B47,B44,1] <= 9976.5
 PM[B47,B45,0]: - c[B45,0] + c[B47,0] + 100 delta[B47,B45,0] <= 89
 PM[B47,B45,1]: - c[B45,1] + c[B47,1] + 9992 delta[B47,B45,1] <= 9969.5
 PM[B47,B46,0]: - c[B46,0] + c[B47,0] + 100 delta[B47,B46,0] <= 81.5
 PM[B47,B46,1]: - c[B46,1] + c[B47,1] + 10000 delta[B47,B46,1] <= 9983
 PM[B47,B48,0]: c[B47,0] - c[B48,0] + 100 delta[B47,B48,0] <= 86.5
 PM[B47,B48,1]: c[B47,1] - c[B48,1] + 10000 delta[B47,B48,1] <= 9982
 PM[B47,B49,0]: c[B47,0] - c[B49,0] + 100 delta[B47,B49,0] <= 88
 PM[B47,B49,1]: c[B47,1] - c[B49,1] + 9996 delta[B47,B49,1] <= 9979
 PM[B48,B0,0]: - c[B0,0] + c[B48,0] + 100 delta[B48,B0,0] <= 78
 PM[B48,B0,1]: - c[B0,1] + c[B48,1] + 10000 delta[B48,B0,1] <= 9984
 PM[B48,B1,0]: - c[B1,0] + c[B48,0] + 90 delta[B48,B1,0] <= 60.5
 PM[B48,B1,1]: - c[B1,1] + c[B48,1] + 10000 delta[B48,B1,1] <= 9989
 PM[B48,B2,0]: - c[B2,0] + c[B48,0] + 100 delta[B48,B2,0] <= 79.5
 PM[B48,B2,1]: - c[B2,1] + c[B48,1] + 10000 delta[B48,B2,1] <= 9990
 PM[B48,B3,0]: - c[B3,0] + c[B48,0] + 90 delta[B48,B3,0] <= 64.5
 PM[B48,B3,1]: - c[B3,1] + c[B48,1] + 10000 delta[B48,B3,1] <= 9985
 PM[B48,B4,0]: - c[B4,0] + c[B48,0] + 100 delta[B48,B4,0] <= 79.5
 PM[B48,B4,1]: - c[B4,1] + c[B48,1] + 10000 delta[B48,B4,1] <= 9989
 PM[B48,B5,0]: - c[B5,0] + c[B48,0] + 100 delta[B48,B5,0] <= 79.5
 PM[B48,B5,1]: - c[B5,1] + c[B48,1] + 10000 delta[B48,B5,1] <= 9992.5
 PM[B48,B6,0]: - c[B6,0] + c[B48,0] + 100 delta[B48,B6,0] <= 75
 PM[B48,B6,1]: - c[B6,1] + c[B48,1] + 10000 delta[B48,B6,1] <= 9991.5
 PM[B48,B7,0]: - c[B7,0] + c[B48,0] + 95 delta[B48,B7,0] <= 70
 PM[B48,B7,1]: - c[B7,1] + c[B48,1] + 10000 delta[B48,B7,1] <= 9991.5
 PM[B48,B8,0]: - c[B8,0] + c[B48,0] + 94 delta[B48,B8,0] <= 73
 PM[B48,B8,1]: - c[B8,1] + c[B48,1] + 10000 delta[B48,B8,1] <= 9984.5
 PM[B48,B9,0]: - c[B9,0] + c[B48,0] + 99 delta[B48,B9,0] <= 76
 PM[B48,B9,1]: - c[B9,1] + c[B48,1] + 10000 delta[B48,B9,1] <= 9991
 PM[B48,B10,0]: - c[B10,0] + c[B48,0] + 100 delta[B48,B10,0] <= 77.5
 PM[B48,B10,1]: - c[B10,1] + c[B48,1] + 10000 delta[B48,B10,1] <= 9990.5
 PM[B48,B11,0]: - c[B11,0] + c[B48,0] + 96 delta[B48,B11,0] <= 74
 PM[B48,B11,1]: - c[B11,1] + c[B48,1] + 10000 delta[B48,B11,1] <= 9984.5
 PM[B48,B12,0]: - c[B12,0] + c[B48,0] + 100 delta[B48,B12,0] <= 73
 PM[B48,B12,1]: - c[B12,1] + c[B48,1] + 10000 delta[B48,B12,1] <= 9988.5
 PM[B48,B13,0]: - c[B13,0] + c[B48,0] + 97 delta[B48,B13,0] <= 72.5
 PM[B48,B13,1]: - c[B13,1] + c[B48,1] + 10000 delta[B48,B13,1] <= 9991.5
 PM[B48,B14,0]: - c[B14,0] + c[B48,0] + 98 delta[B48,B14,0] <= 73.5
 PM[B48,B14,1]: - c[B14,1] + c[B48,1] + 10000 delta[B48,B14,1] <= 9988
 PM[B48,B15,0]: - c[B15,0] + c[B48,0] + 100 delta[B48,B15,0] <= 74.5
 PM[B48,B15,1]: - c[B15,1] + c[B48,1] + 10000 delta[B48,B15,1] <= 9979.5
 PM[B48,B16,0]: - c[B16,0] + c[B48,0] + 100 delta[B48,B16,0] <= 76
 PM[B48,B16,1]: - c[B16,1] + c[B48,1] + 10000 delta[B48,B16,1] <= 9986.5
 PM[B48,B17,0]: - c[B17,0] + c[B48,0] + 91 delta[B48,B17,0] <= 66.5
 PM[B48,B17,1]: - c[B17,1] + c[B48,1] + 10000 delta[B48,B17,1] <= 9970
 PM[B48,B18,0]: - c[B18,0] + c[B48,0] + 96 delta[B48,B18,0] <= 68.5
 PM[B48,B18,1]: - c[B18,1] + c[B48,1] + 10000 delta[B48,B18,1] <= 9992
 PM[B48,B19,0]: - c[B19,0] + c[B48,0] + 100 delta[B48,B19,0] <= 76
 PM[B48,B19,1]: - c[B19,1] + c[B48,1] + 10000 delta[B48,B19,1] <= 9990.5
 PM[B48,B20,0]: - c[B20,0] + c[B48,0] + 100 delta[B48,B20,0] <= 74.5
 PM[B48,B20,1]: - c[B20,1] + c[B48,1] + 10000 delta[B48,B20,1] <= 9980.5
 PM[B48,B21,0]: - c[B21,0] + c[B48,0] + 100 delta[B48,B21,0] <= 71.5
 PM[B48,B21,1]: - c[B21,1] + c[B48,1] + 10000 delta[B48,B21,1] <= 9985.5
 PM[B48,B22,0]: - c[B22,0] + c[B48,0] + 100 delta[B48,B22,0] <= 78
 PM[B48,B22,1]: - c[B22,1] + c[B48,1] + 10000 delta[B48,B22,1] <= 9975.5
 PM[B48,B23,0]: - c[B23,0] + c[B48,0] + 100 delta[B48,B23,0] <= 78.5
 PM[B48,B23,1]: - c[B23,1] + c[B48,1] + 10000 delta[B48,B23,1] <= 9987.5
 PM[B48,B24,0]: - c[B24,0] + c[B48,0] + 91 delta[B48,B24,0] <= 68.5
 PM[B48,B24,1]: - c[B24,1] + c[B48,1] + 10000 delta[B48,B24,1] <= 9973
 PM[B48,B25,0]: - c[B25,0] + c[B48,0] + 100 delta[B48,B25,0] <= 74.5
 PM[B48,B25,1]: - c[B25,1] + c[B48,1] + 10000 delta[B48,B25,1] <= 9991
 PM[B48,B26,0]: - c[B26,0] + c[B48,0] + 100 delta[B48,B26,0] <= 79
 PM[B48,B26,1]: - c[B26,1] + c[B48,1] + 10000 delta[B48,B26,1] <= 9992
 PM[B48,B27,0]: - c[B27,0] + c[B48,0] + 99 delta[B48,B27,0] <= 77.5
 PM[B48,B27,1]: - c[B27,1] + c[B48,1] + 10000 delta[B48,B27,1] <= 9984
 PM[B48,B28,0]: - c[B28,0] + c[B48,0] + 100 delta[B48,B28,0] <= 74
 PM[B48,B28,1]: - c[B28,1] + c[B48,1] + 10000 delta[B48,B28,1] <= 9992
 PM[B48,B29,0]: - c[B29,0] + c[B48,0] + 90 delta[B48,B29,0] <= 63.5
 PM[B48,B29,1]: - c[B29,1] + c[B48,1] + 10000 delta[B48,B29,1] <= 9981
 PM[B48,B30,0]: - c[B30,0] + c[B48,0] + 97 delta[B48,B30,0] <= 76.5
 PM[B48,B30,1]: - c[B30,1] + c[B48,1] + 10000 delta[B48,B30,1] <= 9985.5
 PM[B48,B31,0]: - c[B31,0] + c[B48,0] + 100 delta[B48,B31,0] <= 73.5
 PM[B48,B31,1]: - c[B31,1] + c[B48,1] + 10000 delta[B48,B31,1] <= 9987
 PM[B48,B32,0]: - c[B32,0] + c[B48,0] + 90 delta[B48,B32,0] <= 66.5
 PM[B48,B32,1]: - c[B32,1] + c[B48,1] + 10000 delta[B48,B32,1] <= 9987
 PM[B48,B33,0]: - c[B33,0] + c[B48,0] + 91 delta[B48,B33,0] <= 66
 PM[B48,B33,1]: - c[B33,1] + c[B48,1] + 10000 delta[B48,B33,1] <= 9992.5
 PM[B48,B34,0]: - c[B34,0] + c[B48,0] + 100 delta[B48,B34,0] <= 80
 PM[B48,B34,1]: - c[B34,1] + c[B48,1] + 10000 delta[B48,B34,1] <= 9989
 PM[B48,B35,0]: - c[B35,0] + c[B48,0] + 91 delta[B48,B35,0] <= 67.5
 PM[B48,B35,1]: - c[B35,1] + c[B48,1] + 10000 delta[B48,B35,1] <= 9982
 PM[B48,B36,0]: - c[B36,0] + c[B48,0] + 100 delta[B48,B36,0] <= 77.5
 PM[B48,B36,1]: - c[B36,1] + c[B48,1] + 10000 delta[B48,B36,1] <= 9990
 PM[B48,B37,0]: - c[B37,0] + c[B48,0] + 95 delta[B48,B37,0] <= 74.5
 PM[B48,B37,1]: - c[B37,1] + c[B48,1] + 10000 delta[B48,B37,1] <= 9992
 PM[B48,B38,0]: - c[B38,0] + c[B48,0] + 92 delta[B48,B38,0] <= 66
 PM[B48,B38,1]: - c[B38,1] + c[B48,1] + 10000 delta[B48,B38,1] <= 9989
 PM[B48,B39,0]: - c[B39,0] + c[B48,0] + 90 delta[B48,B39,0] <= 63.5
 PM[B48,B39,1]: - c[B39,1] + c[B48,1] + 10000 delta[B48,B39,1] <= 9985
 PM[B48,B40,0]: - c[B40,0] + c[B48,0] + 91 delta[B48,B40,0] <= 68.5
 PM[B48,B40,1]: - c[B40,1] + c[B48,1] + 10000 delta[B48,B40,1] <= 9992.5
 PM[B48,B41,0]: - c[B41,0] + c[B48,0] + 100 delta[B48,B41,0] <= 78
 PM[B48,B41,1]: - c[B41,1] + c[B48,1] + 10000 delta[B48,B41,1] <= 9990.5
 PM[B48,B42,0]: - c[B42,0] + c[B48,0] + 100 delta[B48,B42,0] <= 75
 PM[B48,B42,1]: - c[B42,1] + c[B48,1] + 10000 delta[B48,B42,1] <= 9976
 PM[B48,B43,0]: - c[B43,0] + c[B48,0] + 95 delta[B48,B43,0] <= 69.5
 PM[B48,B43,1]: - c[B43,1] + c[B48,1] + 10000 delta[B48,B43,1] <= 9985
 PM[B48,B44,0]: - c[B44,0] + c[B48,0] + 100 delta[B48,B44,0] <= 74.5
 PM[B48,B44,1]: - c[B44,1] + c[B48,1] + 10000 delta[B48,B44,1] <= 9985.5
 PM[B48,B45,0]: - c[B45,0] + c[B48,0] + 100 delta[B48,B45,0] <= 77.5
 PM[B48,B45,1]: - c[B45,1] + c[B48,1] + 10000 delta[B48,B45,1] <= 9978.5
 PM[B48,B46,0]: - c[B46,0] + c[B48,0] + 92 delta[B48,B46,0] <= 70
 PM[B48,B46,1]: - c[B46,1] + c[B48,1] + 10000 delta[B48,B46,1] <= 9992
 PM[B48,B47,0]: - c[B47,0] + c[B48,0] + 100 delta[B48,B47,0] <= 76.5
 PM[B48,B47,1]: - c[B47,1] + c[B48,1] + 10000 delta[B48,B47,1] <= 9990
 PM[B48,B49,0]: c[B48,0] - c[B49,0] + 100 delta[B48,B49,0] <= 76.5
 PM[B48,B49,1]: c[B48,1] - c[B49,1] + 10000 delta[B48,B49,1] <= 9988
 PM[B49,B0,0]: - c[B0,0] + c[B49,0] + 100 delta[B49,B0,0] <= 89.5
 PM[B49,B0,1]: - c[B0,1] + c[B49,1] + 9998 delta[B49,B0,1] <= 9983
 PM[B49,B1,0]: - c[B1,0] + c[B49,0] + 100 delta[B49,B1,0] <= 72
 PM[B49,B1,1]: - c[B1,1] + c[B49,1] + 10000 delta[B49,B1,1] <= 9988
 PM[B49,B2,0]: - c[B2,0] + c[B49,0] + 100 delta[B49,B2,0] <= 91
 PM[B49,B2,1]: - c[B2,1] + c[B49,1] + 10000 delta[B49,B2,1] <= 9989
 PM[B49,B3,0]: - c[B3,0] + c[B49,0] + 100 delta[B49,B3,0] <= 76
 PM[B49,B3,1]: - c[B3,1] + c[B49,1] + 9998 delta[B49,B3,1] <= 9984
 PM[B49,B4,0]: - c[B4,0] + c[B49,0] + 100 delta[B49,B4,0] <= 91
 PM[B49,B4,1]: - c[B4,1] + c[B49,1] + 10000 delta[B49,B4,1] <= 9988
 PM[B49,B5,0]: - c[B5,0] + c[B49,0] + 100 delta[B49,B5,0] <= 91
 PM[B49,B5,1]: - c[B5,1] + c[B49,1] + 10000 delta[B49,B5,1] <= 9991.5
 PM[B49,B6,0]: - c[B6,0] + c[B49,0] + 100 delta[B49,B6,0] <= 86.5
 PM[B49,B6,1]: - c[B6,1] + c[B49,1] + 10000 delta[B49,B6,1] <= 9990.5
 PM[B49,B7,0]: - c[B7,0] + c[B49,0] + 100 delta[B49,B7,0] <= 81.5
 PM[B49,B7,1]: - c[B7,1] + c[B49,1] + 10000 delta[B49,B7,1] <= 9990.5
 PM[B49,B8,0]: - c[B8,0] + c[B49,0] + 100 delta[B49,B8,0] <= 84.5
 PM[B49,B8,1]: - c[B8,1] + c[B49,1] + 9998 delta[B49,B8,1] <= 9983.5
 PM[B49,B9,0]: - c[B9,0] + c[B49,0] + 100 delta[B49,B9,0] <= 87.5
 PM[B49,B9,1]: - c[B9,1] + c[B49,1] + 10000 delta[B49,B9,1] <= 9990
 PM[B49,B10,0]: - c[B10,0] + c[B49,0] + 100 delta[B49,B10,0] <= 89
 PM[B49,B10,1]: - c[B10,1] + c[B49,1] + 10000 delta[B49,B10,1] <= 9989.5
 PM[B49,B11,0]: - c[B11,0] + c[B49,0] + 100 delta[B49,B11,0] <= 85.5
 PM[B49,B11,1]: - c[B11,1] + c[B49,1] + 9998 delta[B49,B11,1] <= 9983.5
 PM[B49,B12,0]: - c[B12,0] + c[B49,0] + 100 delta[B49,B12,0] <= 84.5
 PM[B49,B12,1]: - c[B12,1] + c[B49,1] + 9999 delta[B49,B12,1] <= 9987.5
 PM[B49,B13,0]: - c[B13,0] + c[B49,0] + 100 delta[B49,B13,0] <= 84
 PM[B49,B13,1]: - c[B13,1] + c[B49,1] + 10000 delta[B49,B13,1] <= 9990.5
 PM[B49,B14,0]: - c[B14,0] + c[B49,0] + 100 delta[B49,B14,0] <= 85
 PM[B49,B14,1]: - c[B14,1] + c[B49,1] + 9998 delta[B49,B14,1] <= 9987
 PM[B49,B15,0]: - c[B15,0] + c[B49,0] + 100 delta[B49,B15,0] <= 86
 PM[B49,B15,1]: - c[B15,1] + c[B49,1] + 9998 delta[B49,B15,1] <= 9978.5
 PM[B49,B16,0]: - c[B16,0] + c[B49,0] + 100 delta[B49,B16,0] <= 87.5
 PM[B49,B16,1]: - c[B16,1] + c[B49,1] + 9998 delta[B49,B16,1] <= 9985.5
 PM[B49,B17,0]: - c[B17,0] + c[B49,0] + 100 delta[B49,B17,0] <= 78
 PM[B49,B17,1]: - c[B17,1] + c[B49,1] + 9998 delta[B49,B17,1] <= 9969
 PM[B49,B18,0]: - c[B18,0] + c[B49,0] + 100 delta[B49,B18,0] <= 80
 PM[B49,B18,1]: - c[B18,1] + c[B49,1] + 10000 delta[B49,B18,1] <= 9991
 PM[B49,B19,0]: - c[B19,0] + c[B49,0] + 100 delta[B49,B19,0] <= 87.5
 PM[B49,B19,1]: - c[B19,1] + c[B49,1] + 10000 delta[B49,B19,1] <= 9989.5
 PM[B49,B20,0]: - c[B20,0] + c[B49,0] + 100 delta[B49,B20,0] <= 86
 PM[B49,B20,1]: - c[B20,1] + c[B49,1] + 9998 delta[B49,B20,1] <= 9979.5
 PM[B49,B21,0]: - c[B21,0] + c[B49,0] + 100 delta[B49,B21,0] <= 83
 PM[B49,B21,1]: - c[B21,1] + c[B49,1] + 9998 delta[B49,B21,1] <= 9984.5
 PM[B49,B22,0]: - c[B22,0] + c[B49,0] + 100 delta[B49,B22,0] <= 89.5
 PM[B49,B22,1]: - c[B22,1] + c[B49,1] + 9998 delta[B49,B22,1] <= 9974.5
 PM[B49,B23,0]: - c[B23,0] + c[B49,0] + 100 delta[B49,B23,0] <= 90
 PM[B49,B23,1]: - c[B23,1] + c[B49,1] + 10000 delta[B49,B23,1] <= 9986.5
 PM[B49,B24,0]: - c[B24,0] + c[B49,0] + 100 delta[B49,B24,0] <= 80
 PM[B49,B24,1]: - c[B24,1] + c[B49,1] + 9998 delta[B49,B24,1] <= 9972
 PM[B49,B25,0]: - c[B25,0] + c[B49,0] + 100 delta[B49,B25,0] <= 86
 PM[B49,B25,1]: - c[B25,1] + c[B49,1] + 10000 delta[B49,B25,1] <= 9990
 PM[B49,B26,0]: - c[B26,0] + c[B49,0] + 100 delta[B49,B26,0] <= 90.5
 PM[B49,B26,1]: - c[B26,1] + c[B49,1] + 10000 delta[B49,B26,1] <= 9991
 PM[B49,B27,0]: - c[B27,0] + c[B49,0] + 100 delta[B49,B27,0] <= 89
 PM[B49,B27,1]: - c[B27,1] + c[B49,1] + 9998 delta[B49,B27,1] <= 9983
 PM[B49,B28,0]: - c[B28,0] + c[B49,0] + 100 delta[B49,B28,0] <= 85.5
 PM[B49,B28,1]: - c[B28,1] + c[B49,1] + 10000 delta[B49,B28,1] <= 9991
 PM[B49,B29,0]: - c[B29,0] + c[B49,0] + 100 delta[B49,B29,0] <= 75
 PM[B49,B29,1]: - c[B29,1] + c[B49,1] + 9998 delta[B49,B29,1] <= 9980
 PM[B49,B30,0]: - c[B30,0] + c[B49,0] + 100 delta[B49,B30,0] <= 88
 PM[B49,B30,1]: - c[B30,1] + c[B49,1] + 10000 delta[B49,B30,1] <= 9984.5
 PM[B49,B31,0]: - c[B31,0] + c[B49,0] + 100 delta[B49,B31,0] <= 85
 PM[B49,B31,1]: - c[B31,1] + c[B49,1] + 10000 delta[B49,B31,1] <= 9986
 PM[B49,B32,0]: - c[B32,0] + c[B49,0] + 100 delta[B49,B32,0] <= 78
 PM[B49,B32,1]: - c[B32,1] + c[B49,1] + 9998 delta[B49,B32,1] <= 9986
 PM[B49,B33,0]: - c[B33,0] + c[B49,0] + 100 delta[B49,B33,0] <= 77.5
 PM[B49,B33,1]: - c[B33,1] + c[B49,1] + 10000 delta[B49,B33,1] <= 9991.5
 PM[B49,B34,0]: - c[B34,0] + c[B49,0] + 100 delta[B49,B34,0] <= 91.5
 PM[B49,B34,1]: - c[B34,1] + c[B49,1] + 10000 delta[B49,B34,1] <= 9988
 PM[B49,B35,0]: - c[B35,0] + c[B49,0] + 100 delta[B49,B35,0] <= 79
 PM[B49,B35,1]: - c[B35,1] + c[B49,1] + 9998 delta[B49,B35,1] <= 9981
 PM[B49,B36,0]: - c[B36,0] + c[B49,0] + 100 delta[B49,B36,0] <= 89
 PM[B49,B36,1]: - c[B36,1] + c[B49,1] + 10000 delta[B49,B36,1] <= 9989
 PM[B49,B37,0]: - c[B37,0] + c[B49,0] + 100 delta[B49,B37,0] <= 86
 PM[B49,B37,1]: - c[B37,1] + c[B49,1] + 10000 delta[B49,B37,1] <= 9991
 PM[B49,B38,0]: - c[B38,0] + c[B49,0] + 100 delta[B49,B38,0] <= 77.5
 PM[B49,B38,1]: - c[B38,1] + c[B49,1] + 10000 delta[B49,B38,1] <= 9988
 PM[B49,B39,0]: - c[B39,0] + c[B49,0] + 100 delta[B49,B39,0] <= 75
 PM[B49,B39,1]: - c[B39,1] + c[B49,1] + 10000 delta[B49,B39,1] <= 9984
 PM[B49,B40,0]: - c[B40,0] + c[B49,0] + 100 delta[B49,B40,0] <= 80
 PM[B49,B40,1]: - c[B40,1] + c[B49,1] + 10000 delta[B49,B40,1] <= 9991.5
 PM[B49,B41,0]: - c[B41,0] + c[B49,0] + 100 delta[B49,B41,0] <= 89.5
 PM[B49,B41,1]: - c[B41,1] + c[B49,1] + 10000 delta[B49,B41,1] <= 9989.5
 PM[B49,B42,0]: - c[B42,0] + c[B49,0] + 100 delta[B49,B42,0] <= 86.5
 PM[B49,B42,1]: - c[B42,1] + c[B49,1] + 9998 delta[B49,B42,1] <= 9975
 PM[B49,B43,0]: - c[B43,0] + c[B49,0] + 100 delta[B49,B43,0] <= 81
 PM[B49,B43,1]: - c[B43,1] + c[B49,1] + 9998 delta[B49,B43,1] <= 9984
 PM[B49,B44,0]: - c[B44,0] + c[B49,0] + 100 delta[B49,B44,0] <= 86
 PM[B49,B44,1]: - c[B44,1] + c[B49,1] + 9998 delta[B49,B44,1] <= 9984.5
 PM[B49,B45,0]: - c[B45,0] + c[B49,0] + 100 delta[B49,B45,0] <= 89
 PM[B49,B45,1]: - c[B45,1] + c[B49,1] + 9998 delta[B49,B45,1] <= 9977.5
 PM[B49,B46,0]: - c[B46,0] + c[B49,0] + 100 delta[B49,B46,0] <= 81.5
 PM[B49,B46,1]: - c[B46,1] + c[B49,1] + 10000 delta[B49,B46,1] <= 9991
 PM[B49,B47,0]: - c[B47,0] + c[B49,0] + 100 delta[B49,B47,0] <= 88
 PM[B49,B47,1]: - c[B47,1] + c[B49,1] + 10000 delta[B49,B47,1] <= 9989
 PM[B49,B48,0]: - c[B48,0] + c[B49,0] + 100 delta[B49,B48,0] <= 86.5
 PM[B49,B48,1]: - c[B48,1] + c[B49,1] + 10000 delta[B49,B48,1] <= 9990
 S1[B0,B1]: delta[B0,B1,0] + delta[B0,B1,1] + delta[B1,B0,0]
   + delta[B1,B0,1] = 1
 S1[B0,B2]: delta[B0,B2,0] + delta[B0,B2,1] + delta[B2,B0,0]
   + delta[B2,B0,1] = 1
 S1[B0,B3]: delta[B0,B3,0] + delta[B0,B3,1] + delta[B3,B0,0]
   + delta[B3,B0,1] = 1
 S1[B0,B4]: delta[B0,B4,0] + delta[B0,B4,1] + delta[B4,B0,0]
   + delta[B4,B0,1] = 1
 S1[B0,B5]: delta[B0,B5,0] + delta[B0,B5,1] + delta[B5,B0,0]
   + delta[B5,B0,1] = 1
 S1[B0,B6]: delta[B0,B6,0] + delta[B0,B6,1] + delta[B6,B0,0]
   + delta[B6,B0,1] = 1
 S1[B0,B7]: delta[B0,B7,0] + delta[B0,B7,1] + delta[B7,B0,0]
   + delta[B7,B0,1] = 1
 S1[B0,B8]: delta[B0,B8,0] + delta[B0,B8,1] + delta[B8,B0,0]
   + delta[B8,B0,1] = 1
 S1[B0,B9]: delta[B0,B9,0] + delta[B0,B9,1] + delta[B9,B0,0]
   + delta[B9,B0,1] = 1
 S1[B0,B10]: delta[B0,B10,0] + delta[B0,B10,1] + delta[B10,B0,0]
   + delta[B10,B0,1] = 1
 S1[B0,B11]: delta[B0,B11,0] + delta[B0,B11,1] + delta[B11,B0,0]
   + delta[B11,B0,1] = 1
 S1[B0,B12]: delta[B0,B12,0] + delta[B0,B12,1] + delta[B12,B0,0]
   + delta[B12,B0,1] = 1
 S1[B0,B13]: delta[B0,B13,0] + delta[B0,B13,1] + delta[B13,B0,0]
   + delta[B13,B0,1] = 1
 S1[B0,B14]: delta[B0,B14,0] + delta[B0,B14,1] + delta[B14,B0,0]
   + delta[B14,B0,1] = 1
 S1[B0,B15]: delta[B0,B15,0] + delta[B0,B15,1] + delta[B15,B0,0]
   + delta[B15,B0,1] = 1
 S1[B0,B16]: delta[B0,B16,0] + delta[B0,B16,1] + delta[B16,B0,0]
   + delta[B16,B0,1] = 1
 S1[B0,B17]: delta[B0,B17,0] + delta[B0,B17,1] + delta[B17,B0,0]
   + delta[B17,B0,1] = 1
 S1[B0,B18]: delta[B0,B18,0] + delta[B0,B18,1] + delta[B18,B0,0]
   + delta[B18,B0,1] = 1
 S1[B0,B19]: delta[B0,B19,0] + delta[B0,B19,1] + delta[B19,B0,0]
   + delta[B19,B0,1] = 1
 S1[B0,B20]: delta[B0,B20,0] + delta[B0,B20,1] + delta[B20,B0,0]
   + delta[B20,B0,1] = 1
 S1[B0,B21]: delta[B0,B21,0] + delta[B0,B21,1] + delta[B21,B0,0]
   + delta[B21,B0,1] = 1
 S1[B0,B22]: delta[B0,B22,0] + delta[B0,B22,1] + delta[B22,B0,0]
   + delta[B22,B0,1] = 1
 S1[B0,B23]: delta[B0,B23,0] + delta[B0,B23,1] + delta[B23,B0,0]
   + delta[B23,B0,1] = 1
 S1[B0,B24]: delta[B0,B24,0] + delta[B0,B24,1] + delta[B24,B0,0]
   + delta[B24,B0,1] = 1
 S1[B0,B25]: delta[B0,B25,0] + delta[B0,B25,1] + delta[B25,B0,0]
   + delta[B25,B0,1] = 1
 S1[B0,B26]: delta[B0,B26,0] + delta[B0,B26,1] + delta[B26,B0,0]
   + delta[B26,B0,1] = 1
 S1[B0,B27]: delta[B0,B27,0] + delta[B0,B27,1] + delta[B27,B0,0]
   + delta[B27,B0,1] = 1
 S1[B0,B28]: delta[B0,B28,0] + delta[B0,B28,1] + delta[B28,B0,0]
   + delta[B28,B0,1] = 1
 S1[B0,B29]: delta[B0,B29,0] + delta[B0,B29,1] + delta[B29,B0,0]
   + delta[B29,B0,1] = 1
 S1[B0,B30]: delta[B0,B30,0] + delta[B0,B30,1] + delta[B30,B0,0]
   + delta[B30,B0,1] = 1
 S1[B0,B31]: delta[B0,B31,0] + delta[B0,B31,1] + delta[B31,B0,0]
   + delta[B31,B0,1] = 1
 S1[B0,B32]: delta[B0,B32,0] + delta[B0,B32,1] + delta[B32,B0,0]
   + delta[B32,B0,1] = 1
 S1[B0,B33]: delta[B0,B33,0] + delta[B0,B33,1] + delta[B33,B0,0]
   + delta[B33,B0,1] = 1
 S1[B0,B34]: delta[B0,B34,0] + delta[B0,B34,1] + delta[B34,B0,0]
   + delta[B34,B0,1] = 1
 S1[B0,B35]: delta[B0,B35,0] + delta[B0,B35,1] + delta[B35,B0,0]
   + delta[B35,B0,1] = 1
 S1[B0,B36]: delta[B0,B36,0] + delta[B0,B36,1] + delta[B36,B0,0]
   + delta[B36,B0,1] = 1
 S1[B0,B37]: delta[B0,B37,0] + delta[B0,B37,1] + delta[B37,B0,0]
   + delta[B37,B0,1] = 1
 S1[B0,B38]: delta[B0,B38,0] + delta[B0,B38,1] + delta[B38,B0,0]
   + delta[B38,B0,1] = 1
 S1[B0,B39]: delta[B0,B39,0] + delta[B0,B39,1] + delta[B39,B0,0]
   + delta[B39,B0,1] = 1
 S1[B0,B40]: delta[B0,B40,0] + delta[B0,B40,1] + delta[B40,B0,0]
   + delta[B40,B0,1] = 1
 S1[B0,B41]: delta[B0,B41,0] + delta[B0,B41,1] + delta[B41,B0,0]
   + delta[B41,B0,1] = 1
 S1[B0,B42]: delta[B0,B42,0] + delta[B0,B42,1] + delta[B42,B0,0]
   + delta[B42,B0,1] = 1
 S1[B0,B43]: delta[B0,B43,0] + delta[B0,B43,1] + delta[B43,B0,0]
   + delta[B43,B0,1] = 1
 S1[B0,B44]: delta[B0,B44,0] + delta[B0,B44,1] + delta[B44,B0,0]
   + delta[B44,B0,1] = 1
 S1[B0,B45]: delta[B0,B45,0] + delta[B0,B45,1] + delta[B45,B0,0]
   + delta[B45,B0,1] = 1
 S1[B0,B46]: delta[B0,B46,0] + delta[B0,B46,1] + delta[B46,B0,0]
   + delta[B46,B0,1] = 1
 S1[B0,B47]: delta[B0,B47,0] + delta[B0,B47,1] + delta[B47,B0,0]
   + delta[B47,B0,1] = 1
 S1[B0,B48]: delta[B0,B48,0] + delta[B0,B48,1] + delta[B48,B0,0]
   + delta[B48,B0,1] = 1
 S1[B0,B49]: delta[B0,B49,0] + delta[B0,B49,1] + delta[B49,B0,0]
   + delta[B49,B0,1] = 1
 S1[B1,B2]: delta[B1,B2,0] + delta[B1,B2,1] + delta[B2,B1,0]
   + delta[B2,B1,1] = 1
 S1[B1,B3]: delta[B1,B3,0] + delta[B1,B3,1] + delta[B3,B1,0]
   + delta[B3,B1,1] = 1
 S1[B1,B4]: delta[B1,B4,0] + delta[B1,B4,1] + delta[B4,B1,0]
   + delta[B4,B1,1] = 1
 S1[B1,B5]: delta[B1,B5,0] + delta[B1,B5,1] + delta[B5,B1,0]
   + delta[B5,B1,1] = 1
 S1[B1,B6]: delta[B1,B6,0] + delta[B1,B6,1] + delta[B6,B1,0]
   + delta[B6,B1,1] = 1
 S1[B1,B7]: delta[B1,B7,0] + delta[B1,B7,1] + delta[B7,B1,0]
   + delta[B7,B1,1] = 1
 S1[B1,B8]: delta[B1,B8,0] + delta[B1,B8,1] + delta[B8,B1,0]
   + delta[B8,B1,1] = 1
 S1[B1,B9]: delta[B1,B9,0] + delta[B1,B9,1] + delta[B9,B1,0]
   + delta[B9,B1,1] = 1
 S1[B1,B10]: delta[B1,B10,0] + delta[B1,B10,1] + delta[B10,B1,0]
   + delta[B10,B1,1] = 1
 S1[B1,B11]: delta[B1,B11,0] + delta[B1,B11,1] + delta[B11,B1,0]
   + delta[B11,B1,1] = 1
 S1[B1,B12]: delta[B1,B12,0] + delta[B1,B12,1] + delta[B12,B1,0]
   + delta[B12,B1,1] = 1
 S1[B1,B13]: delta[B1,B13,0] + delta[B1,B13,1] + delta[B13,B1,0]
   + delta[B13,B1,1] = 1
 S1[B1,B14]: delta[B1,B14,0] + delta[B1,B14,1] + delta[B14,B1,0]
   + delta[B14,B1,1] = 1
 S1[B1,B15]: delta[B1,B15,0] + delta[B1,B15,1] + delta[B15,B1,0]
   + delta[B15,B1,1] = 1
 S1[B1,B16]: delta[B1,B16,0] + delta[B1,B16,1] + delta[B16,B1,0]
   + delta[B16,B1,1] = 1
 S1[B1,B17]: delta[B1,B17,0] + delta[B1,B17,1] + delta[B17,B1,0]
   + delta[B17,B1,1] = 1
 S1[B1,B18]: delta[B1,B18,0] + delta[B1,B18,1] + delta[B18,B1,0]
   + delta[B18,B1,1] = 1
 S1[B1,B19]: delta[B1,B19,0] + delta[B1,B19,1] + delta[B19,B1,0]
   + delta[B19,B1,1] = 1
 S1[B1,B20]: delta[B1,B20,0] + delta[B1,B20,1] + delta[B20,B1,0]
   + delta[B20,B1,1] = 1
 S1[B1,B21]: delta[B1,B21,0] + delta[B1,B21,1] + delta[B21,B1,0]
   + delta[B21,B1,1] = 1
 S1[B1,B22]: delta[B1,B22,0] + delta[B1,B22,1] + delta[B22,B1,0]
   + delta[B22,B1,1] = 1
 S1[B1,B23]: delta[B1,B23,0] + delta[B1,B23,1] + delta[B23,B1,0]
   + delta[B23,B1,1] = 1
 S1[B1,B24]: delta[B1,B24,0] + delta[B1,B24,1] + delta[B24,B1,0]
   + delta[B24,B1,1] = 1
 S1[B1,B25]: delta[B1,B25,0] + delta[B1,B25,1] + delta[B25,B1,0]
   + delta[B25,B1,1] = 1
 S1[B1,B26]: delta[B1,B26,0] + delta[B1,B26,1] + delta[B26,B1,0]
   + delta[B26,B1,1] = 1
 S1[B1,B27]: delta[B1,B27,0] + delta[B1,B27,1] + delta[B27,B1,0]
   + delta[B27,B1,1] = 1
 S1[B1,B28]: delta[B1,B28,0] + delta[B1,B28,1] + delta[B28,B1,0]
   + delta[B28,B1,1] = 1
 S1[B1,B29]: delta[B1,B29,0] + delta[B1,B29,1] + delta[B29,B1,0]
   + delta[B29,B1,1] = 1
 S1[B1,B30]: delta[B1,B30,0] + delta[B1,B30,1] + delta[B30,B1,0]
   + delta[B30,B1,1] = 1
 S1[B1,B31]: delta[B1,B31,0] + delta[B1,B31,1] + delta[B31,B1,0]
   + delta[B31,B1,1] = 1
 S1[B1,B32]: delta[B1,B32,0] + delta[B1,B32,1] + delta[B32,B1,0]
   + delta[B32,B1,1] = 1
 S1[B1,B33]: delta[B1,B33,0] + delta[B1,B33,1] + delta[B33,B1,0]
   + delta[B33,B1,1] = 1
 S1[B1,B34]: delta[B1,B34,0] + delta[B1,B34,1] + delta[B34,B1,0]
   + delta[B34,B1,1] = 1
 S1[B1,B35]: delta[B1,B35,0] + delta[B1,B35,1] + delta[B35,B1,0]
   + delta[B35,B1,1] = 1
 S1[B1,B36]: delta[B1,B36,0] + delta[B1,B36,1] + delta[B36,B1,0]
   + delta[B36,B1,1] = 1
 S1[B1,B37]: delta[B1,B37,0] + delta[B1,B37,1] + delta[B37,B1,0]
   + delta[B37,B1,1] = 1
 S1[B1,B38]: delta[B1,B38,0] + delta[B1,B38,1] + delta[B38,B1,0]
   + delta[B38,B1,1] = 1
 S1[B1,B39]: delta[B1,B39,0] + delta[B1,B39,1] + delta[B39,B1,0]
   + delta[B39,B1,1] = 1
 S1[B1,B40]: delta[B1,B40,0] + delta[B1,B40,1] + delta[B40,B1,0]
   + delta[B40,B1,1] = 1
 S1[B1,B41]: delta[B1,B41,0] + delta[B1,B41,1] + delta[B41,B1,0]
   + delta[B41,B1,1] = 1
 S1[B1,B42]: delta[B1,B42,0] + delta[B1,B42,1] + delta[B42,B1,0]
   + delta[B42,B1,1] = 1
 S1[B1,B43]: delta[B1,B43,0] + delta[B1,B43,1] + delta[B43,B1,0]
   + delta[B43,B1,1] = 1
 S1[B1,B44]: delta[B1,B44,0] + delta[B1,B44,1] + delta[B44,B1,0]
   + delta[B44,B1,1] = 1
 S1[B1,B45]: delta[B1,B45,0] + delta[B1,B45,1] + delta[B45,B1,0]
   + delta[B45,B1,1] = 1
 S1[B1,B46]: delta[B1,B46,0] + delta[B1,B46,1] + delta[B46,B1,0]
   + delta[B46,B1,1] = 1
 S1[B1,B47]: delta[B1,B47,0] + delta[B1,B47,1] + delta[B47,B1,0]
   + delta[B47,B1,1] = 1
 S1[B1,B48]: delta[B1,B48,0] + delta[B1,B48,1] + delta[B48,B1,0]
   + delta[B48,B1,1] = 1
 S1[B1,B49]: delta[B1,B49,0] + delta[B1,B49,1] + delta[B49,B1,0]
   + delta[B49,B1,1] = 1
 S1[B2,B3]: delta[B2,B3,0] + delta[B2,B3,1] + delta[B3,B2,0]
   + delta[B3,B2,1] = 1
 S1[B2,B4]: delta[B2,B4,0] + delta[B2,B4,1] + delta[B4,B2,0]
   + delta[B4,B2,1] = 1
 S1[B2,B5]: delta[B2,B5,0] + delta[B2,B5,1] + delta[B5,B2,0]
   + delta[B5,B2,1] = 1
 S1[B2,B6]: delta[B2,B6,0] + delta[B2,B6,1] + delta[B6,B2,0]
   + delta[B6,B2,1] = 1
 S1[B2,B7]: delta[B2,B7,0] + delta[B2,B7,1] + delta[B7,B2,0]
   + delta[B7,B2,1] = 1
 S1[B2,B8]: delta[B2,B8,0] + delta[B2,B8,1] + delta[B8,B2,0]
   + delta[B8,B2,1] = 1
 S1[B2,B9]: delta[B2,B9,0] + delta[B2,B9,1] + delta[B9,B2,0]
   + delta[B9,B2,1] = 1
 S1[B2,B10]: delta[B2,B10,0] + delta[B2,B10,1] + delta[B10,B2,0]
   + delta[B10,B2,1] = 1
 S1[B2,B11]: delta[B2,B11,0] + delta[B2,B11,1] + delta[B11,B2,0]
   + delta[B11,B2,1] = 1
 S1[B2,B12]: delta[B2,B12,0] + delta[B2,B12,1] + delta[B12,B2,0]
   + delta[B12,B2,1] = 1
 S1[B2,B13]: delta[B2,B13,0] + delta[B2,B13,1] + delta[B13,B2,0]
   + delta[B13,B2,1] = 1
 S1[B2,B14]: delta[B2,B14,0] + delta[B2,B14,1] + delta[B14,B2,0]
   + delta[B14,B2,1] = 1
 S1[B2,B15]: delta[B2,B15,0] + delta[B2,B15,1] + delta[B15,B2,0]
   + delta[B15,B2,1] = 1
 S1[B2,B16]: delta[B2,B16,0] + delta[B2,B16,1] + delta[B16,B2,0]
   + delta[B16,B2,1] = 1
 S1[B2,B17]: delta[B2,B17,0] + delta[B2,B17,1] + delta[B17,B2,0]
   + delta[B17,B2,1] = 1
 S1[B2,B18]: delta[B2,B18,0] + delta[B2,B18,1] + delta[B18,B2,0]
   + delta[B18,B2,1] = 1
 S1[B2,B19]: delta[B2,B19,0] + delta[B2,B19,1] + delta[B19,B2,0]
   + delta[B19,B2,1] = 1
 S1[B2,B20]: delta[B2,B20,0] + delta[B2,B20,1] + delta[B20,B2,0]
   + delta[B20,B2,1] = 1
 S1[B2,B21]: delta[B2,B21,0] + delta[B2,B21,1] + delta[B21,B2,0]
   + delta[B21,B2,1] = 1
 S1[B2,B22]: delta[B2,B22,0] + delta[B2,B22,1] + delta[B22,B2,0]
   + delta[B22,B2,1] = 1
 S1[B2,B23]: delta[B2,B23,0] + delta[B2,B23,1] + delta[B23,B2,0]
   + delta[B23,B2,1] = 1
 S1[B2,B24]: delta[B2,B24,0] + delta[B2,B24,1] + delta[B24,B2,0]
   + delta[B24,B2,1] = 1
 S1[B2,B25]: delta[B2,B25,0] + delta[B2,B25,1] + delta[B25,B2,0]
   + delta[B25,B2,1] = 1
 S1[B2,B26]: delta[B2,B26,0] + delta[B2,B26,1] + delta[B26,B2,0]
   + delta[B26,B2,1] = 1
 S1[B2,B27]: delta[B2,B27,0] + delta[B2,B27,1] + delta[B27,B2,0]
   + delta[B27,B2,1] = 1
 S1[B2,B28]: delta[B2,B28,0] + delta[B2,B28,1] + delta[B28,B2,0]
   + delta[B28,B2,1] = 1
 S1[B2,B29]: delta[B2,B29,0] + delta[B2,B29,1] + delta[B29,B2,0]
   + delta[B29,B2,1] = 1
 S1[B2,B30]: delta[B2,B30,0] + delta[B2,B30,1] + delta[B30,B2,0]
   + delta[B30,B2,1] = 1
 S1[B2,B31]: delta[B2,B31,0] + delta[B2,B31,1] + delta[B31,B2,0]
   + delta[B31,B2,1] = 1
 S1[B2,B32]: delta[B2,B32,0] + delta[B2,B32,1] + delta[B32,B2,0]
   + delta[B32,B2,1] = 1
 S1[B2,B33]: delta[B2,B33,0] + delta[B2,B33,1] + delta[B33,B2,0]
   + delta[B33,B2,1] = 1
 S1[B2,B34]: delta[B2,B34,0] + delta[B2,B34,1] + delta[B34,B2,0]
   + delta[B34,B2,1] = 1
 S1[B2,B35]: delta[B2,B35,0] + delta[B2,B35,1] + delta[B35,B2,0]
   + delta[B35,B2,1] = 1
 S1[B2,B36]: delta[B2,B36,0] + delta[B2,B36,1] + delta[B36,B2,0]
   + delta[B36,B2,1] = 1
 S1[B2,B37]: delta[B2,B37,0] + delta[B2,B37,1] + delta[B37,B2,0]
   + delta[B37,B2,1] = 1
 S1[B2,B38]: delta[B2,B38,0] + delta[B2,B38,1] + delta[B38,B2,0]
   + delta[B38,B2,1] = 1
 S1[B2,B39]: delta[B2,B39,0] + delta[B2,B39,1] + delta[B39,B2,0]
   + delta[B39,B2,1] = 1
 S1[B2,B40]: delta[B2,B40,0] + delta[B2,B40,1] + delta[B40,B2,0]
   + delta[B40,B2,1] = 1
 S1[B2,B41]: delta[B2,B41,0] + delta[B2,B41,1] + delta[B41,B2,0]
   + delta[B41,B2,1] = 1
 S1[B2,B42]: delta[B2,B42,0] + delta[B2,B42,1] + delta[B42,B2,0]
   + delta[B42,B2,1] = 1
 S1[B2,B43]: delta[B2,B43,0] + delta[B2,B43,1] + delta[B43,B2,0]
   + delta[B43,B2,1] = 1
 S1[B2,B44]: delta[B2,B44,0] + delta[B2,B44,1] + delta[B44,B2,0]
   + delta[B44,B2,1] = 1
 S1[B2,B45]: delta[B2,B45,0] + delta[B2,B45,1] + delta[B45,B2,0]
   + delta[B45,B2,1] = 1
 S1[B2,B46]: delta[B2,B46,0] + delta[B2,B46,1] + delta[B46,B2,0]
   + delta[B46,B2,1] = 1
 S1[B2,B47]: delta[B2,B47,0] + delta[B2,B47,1] + delta[B47,B2,0]
   + delta[B47,B2,1] = 1
 S1[B2,B48]: delta[B2,B48,0] + delta[B2,B48,1] + delta[B48,B2,0]
   + delta[B48,B2,1] = 1
 S1[B2,B49]: delta[B2,B49,0] + delta[B2,B49,1] + delta[B49,B2,0]
   + delta[B49,B2,1] = 1
 S1[B3,B4]: delta[B3,B4,0] + delta[B3,B4,1] + delta[B4,B3,0]
   + delta[B4,B3,1] = 1
 S1[B3,B5]: delta[B3,B5,0] + delta[B3,B5,1] + delta[B5,B3,0]
   + delta[B5,B3,1] = 1
 S1[B3,B6]: delta[B3,B6,0] + delta[B3,B6,1] + delta[B6,B3,0]
   + delta[B6,B3,1] = 1
 S1[B3,B7]: delta[B3,B7,0] + delta[B3,B7,1] + delta[B7,B3,0]
   + delta[B7,B3,1] = 1
 S1[B3,B8]: delta[B3,B8,0] + delta[B3,B8,1] + delta[B8,B3,0]
   + delta[B8,B3,1] = 1
 S1[B3,B9]: delta[B3,B9,0] + delta[B3,B9,1] + delta[B9,B3,0]
   + delta[B9,B3,1] = 1
 S1[B3,B10]: delta[B3,B10,0] + delta[B3,B10,1] + delta[B10,B3,0]
   + delta[B10,B3,1] = 1
 S1[B3,B11]: delta[B3,B11,0] + delta[B3,B11,1] + delta[B11,B3,0]
   + delta[B11,B3,1] = 1
 S1[B3,B12]: delta[B3,B12,0] + delta[B3,B12,1] + delta[B12,B3,0]
   + delta[B12,B3,1] = 1
 S1[B3,B13]: delta[B3,B13,0] + delta[B3,B13,1] + delta[B13,B3,0]
   + delta[B13,B3,1] = 1
 S1[B3,B14]: delta[B3,B14,0] + delta[B3,B14,1] + delta[B14,B3,0]
   + delta[B14,B3,1] = 1
 S1[B3,B15]: delta[B3,B15,0] + delta[B3,B15,1] + delta[B15,B3,0]
   + delta[B15,B3,1] = 1
 S1[B3,B16]: delta[B3,B16,0] + delta[B3,B16,1] + delta[B16,B3,0]
   + delta[B16,B3,1] = 1
 S1[B3,B17]: delta[B3,B17,0] + delta[B3,B17,1] + delta[B17,B3,0]
   + delta[B17,B3,1] = 1
 S1[B3,B18]: delta[B3,B18,0] + delta[B3,B18,1] + delta[B18,B3,0]
   + delta[B18,B3,1] = 1
 S1[B3,B19]: delta[B3,B19,0] + delta[B3,B19,1] + delta[B19,B3,0]
   + delta[B19,B3,1] = 1
 S1[B3,B20]: delta[B3,B20,0] + delta[B3,B20,1] + delta[B20,B3,0]
   + delta[B20,B3,1] = 1
 S1[B3,B21]: delta[B3,B21,0] + delta[B3,B21,1] + delta[B21,B3,0]
   + delta[B21,B3,1] = 1
 S1[B3,B22]: delta[B3,B22,0] + delta[B3,B22,1] + delta[B22,B3,0]
   + delta[B22,B3,1] = 1
 S1[B3,B23]: delta[B3,B23,0] + delta[B3,B23,1] + delta[B23,B3,0]
   + delta[B23,B3,1] = 1
 S1[B3,B24]: delta[B3,B24,0] + delta[B3,B24,1] + delta[B24,B3,0]
   + delta[B24,B3,1] = 1
 S1[B3,B25]: delta[B3,B25,0] + delta[B3,B25,1] + delta[B25,B3,0]
   + delta[B25,B3,1] = 1
 S1[B3,B26]: delta[B3,B26,0] + delta[B3,B26,1] + delta[B26,B3,0]
   + delta[B26,B3,1] = 1
 S1[B3,B27]: delta[B3,B27,0] + delta[B3,B27,1] + delta[B27,B3,0]
   + delta[B27,B3,1] = 1
 S1[B3,B28]: delta[B3,B28,0] + delta[B3,B28,1] + delta[B28,B3,0]
   + delta[B28,B3,1] = 1
 S1[B3,B29]: delta[B3,B29,0] + delta[B3,B29,1] + delta[B29,B3,0]
   + delta[B29,B3,1] = 1
 S1[B3,B30]: delta[B3,B30,0] + delta[B3,B30,1] + delta[B30,B3,0]
   + delta[B30,B3,1] = 1
 S1[B3,B31]: delta[B3,B31,0] + delta[B3,B31,1] + delta[B31,B3,0]
   + delta[B31,B3,1] = 1
 S1[B3,B32]: delta[B3,B32,0] + delta[B3,B32,1] + delta[B32,B3,0]
   + delta[B32,B3,1] = 1
 S1[B3,B33]: delta[B3,B33,0] + delta[B3,B33,1] + delta[B33,B3,0]
   + delta[B33,B3,1] = 1
 S1[B3,B34]: delta[B3,B34,0] + delta[B3,B34,1] + delta[B34,B3,0]
   + delta[B34,B3,1] = 1
 S1[B3,B35]: delta[B3,B35,0] + delta[B3,B35,1] + delta[B35,B3,0]
   + delta[B35,B3,1] = 1
 S1[B3,B36]: delta[B3,B36,0] + delta[B3,B36,1] + delta[B36,B3,0]
   + delta[B36,B3,1] = 1
 S1[B3,B37]: delta[B3,B37,0] + delta[B3,B37,1] + delta[B37,B3,0]
   + delta[B37,B3,1] = 1
 S1[B3,B38]: delta[B3,B38,0] + delta[B3,B38,1] + delta[B38,B3,0]
   + delta[B38,B3,1] = 1
 S1[B3,B39]: delta[B3,B39,0] + delta[B3,B39,1] + delta[B39,B3,0]
   + delta[B39,B3,1] = 1
 S1[B3,B40]: delta[B3,B40,0] + delta[B3,B40,1] + delta[B40,B3,0]
   + delta[B40,B3,1] = 1
 S1[B3,B41]: delta[B3,B41,0] + delta[B3,B41,1] + delta[B41,B3,0]
   + delta[B41,B3,1] = 1
 S1[B3,B42]: delta[B3,B42,0] + delta[B3,B42,1] + delta[B42,B3,0]
   + delta[B42,B3,1] = 1
 S1[B3,B43]: delta[B3,B43,0] + delta[B3,B43,1] + delta[B43,B3,0]
   + delta[B43,B3,1] = 1
 S1[B3,B44]: delta[B3,B44,0] + delta[B3,B44,1] + delta[B44,B3,0]
   + delta[B44,B3,1] = 1
 S1[B3,B45]: delta[B3,B45,0] + delta[B3,B45,1] + delta[B45,B3,0]
   + delta[B45,B3,1] = 1
 S1[B3,B46]: delta[B3,B46,0] + delta[B3,B46,1] + delta[B46,B3,0]
   + delta[B46,B3,1] = 1
 S1[B3,B47]: delta[B3,B47,0] + delta[B3,B47,1] + delta[B47,B3,0]
   + delta[B47,B3,1] = 1
 S1[B3,B48]: delta[B3,B48,0] + delta[B3,B48,1] + delta[B48,B3,0]
   + delta[B48,B3,1] = 1
 S1[B3,B49]: delta[B3,B49,0] + delta[B3,B49,1] + delta[B49,B3,0]
   + delta[B49,B3,1] = 1
 S1[B4,B5]: delta[B4,B5,0] + delta[B4,B5,1] + delta[B5,B4,0]
   + delta[B5,B4,1] = 1
 S1[B4,B6]: delta[B4,B6,0] + delta[B4,B6,1] + delta[B6,B4,0]
   + delta[B6,B4,1] = 1
 S1[B4,B7]: delta[B4,B7,0] + delta[B4,B7,1] + delta[B7,B4,0]
   + delta[B7,B4,1] = 1
 S1[B4,B8]: delta[B4,B8,0] + delta[B4,B8,1] + delta[B8,B4,0]
   + delta[B8,B4,1] = 1
 S1[B4,B9]: delta[B4,B9,0] + delta[B4,B9,1] + delta[B9,B4,0]
   + delta[B9,B4,1] = 1
 S1[B4,B10]: delta[B4,B10,0] + delta[B4,B10,1] + delta[B10,B4,0]
   + delta[B10,B4,1] = 1
 S1[B4,B11]: delta[B4,B11,0] + delta[B4,B11,1] + delta[B11,B4,0]
   + delta[B11,B4,1] = 1
 S1[B4,B12]: delta[B4,B12,0] + delta[B4,B12,1] + delta[B12,B4,0]
   + delta[B12,B4,1] = 1
 S1[B4,B13]: delta[B4,B13,0] + delta[B4,B13,1] + delta[B13,B4,0]
   + delta[B13,B4,1] = 1
 S1[B4,B14]: delta[B4,B14,0] + delta[B4,B14,1] + delta[B14,B4,0]
   + delta[B14,B4,1] = 1
 S1[B4,B15]: delta[B4,B15,0] + delta[B4,B15,1] + delta[B15,B4,0]
   + delta[B15,B4,1] = 1
 S1[B4,B16]: delta[B4,B16,0] + delta[B4,B16,1] + delta[B16,B4,0]
   + delta[B16,B4,1] = 1
 S1[B4,B17]: delta[B4,B17,0] + delta[B4,B17,1] + delta[B17,B4,0]
   + delta[B17,B4,1] = 1
 S1[B4,B18]: delta[B4,B18,0] + delta[B4,B18,1] + delta[B18,B4,0]
   + delta[B18,B4,1] = 1
 S1[B4,B19]: delta[B4,B19,0] + delta[B4,B19,1] + delta[B19,B4,0]
   + delta[B19,B4,1] = 1
 S1[B4,B20]: delta[B4,B20,0] + delta[B4,B20,1] + delta[B20,B4,0]
   + delta[B20,B4,1] = 1
 S1[B4,B21]: delta[B4,B21,0] + delta[B4,B21,1] + delta[B21,B4,0]
   + delta[B21,B4,1] = 1
 S1[B4,B22]: delta[B4,B22,0] + delta[B4,B22,1] + delta[B22,B4,0]
   + delta[B22,B4,1] = 1
 S1[B4,B23]: delta[B4,B23,0] + delta[B4,B23,1] + delta[B23,B4,0]
   + delta[B23,B4,1] = 1
 S1[B4,B24]: delta[B4,B24,0] + delta[B4,B24,1] + delta[B24,B4,0]
   + delta[B24,B4,1] = 1
 S1[B4,B25]: delta[B4,B25,0] + delta[B4,B25,1] + delta[B25,B4,0]
   + delta[B25,B4,1] = 1
 S1[B4,B26]: delta[B4,B26,0] + delta[B4,B26,1] + delta[B26,B4,0]
   + delta[B26,B4,1] = 1
 S1[B4,B27]: delta[B4,B27,0] + delta[B4,B27,1] + delta[B27,B4,0]
   + delta[B27,B4,1] = 1
 S1[B4,B28]: delta[B4,B28,0] + delta[B4,B28,1] + delta[B28,B4,0]
   + delta[B28,B4,1] = 1
 S1[B4,B29]: delta[B4,B29,0] + delta[B4,B29,1] + delta[B29,B4,0]
   + delta[B29,B4,1] = 1
 S1[B4,B30]: delta[B4,B30,0] + delta[B4,B30,1] + delta[B30,B4,0]
   + delta[B30,B4,1] = 1
 S1[B4,B31]: delta[B4,B31,0] + delta[B4,B31,1] + delta[B31,B4,0]
   + delta[B31,B4,1] = 1
 S1[B4,B32]: delta[B4,B32,0] + delta[B4,B32,1] + delta[B32,B4,0]
   + delta[B32,B4,1] = 1
 S1[B4,B33]: delta[B4,B33,0] + delta[B4,B33,1] + delta[B33,B4,0]
   + delta[B33,B4,1] = 1
 S1[B4,B34]: delta[B4,B34,0] + delta[B4,B34,1] + delta[B34,B4,0]
   + delta[B34,B4,1] = 1
 S1[B4,B35]: delta[B4,B35,0] + delta[B4,B35,1] + delta[B35,B4,0]
   + delta[B35,B4,1] = 1
 S1[B4,B36]: delta[B4,B36,0] + delta[B4,B36,1] + delta[B36,B4,0]
   + delta[B36,B4,1] = 1
 S1[B4,B37]: delta[B4,B37,0] + delta[B4,B37,1] + delta[B37,B4,0]
   + delta[B37,B4,1] = 1
 S1[B4,B38]: delta[B4,B38,0] + delta[B4,B38,1] + delta[B38,B4,0]
   + delta[B38,B4,1] = 1
 S1[B4,B39]: delta[B4,B39,0] + delta[B4,B39,1] + delta[B39,B4,0]
   + delta[B39,B4,1] = 1
 S1[B4,B40]: delta[B4,B40,0] + delta[B4,B40,1] + delta[B40,B4,0]
   + delta[B40,B4,1] = 1
 S1[B4,B41]: delta[B4,B41,0] + delta[B4,B41,1] + delta[B41,B4,0]
   + delta[B41,B4,1] = 1
 S1[B4,B42]: delta[B4,B42,0] + delta[B4,B42,1] + delta[B42,B4,0]
   + delta[B42,B4,1] = 1
 S1[B4,B43]: delta[B4,B43,0] + delta[B4,B43,1] + delta[B43,B4,0]
   + delta[B43,B4,1] = 1
 S1[B4,B44]: delta[B4,B44,0] + delta[B4,B44,1] + delta[B44,B4,0]
   + delta[B44,B4,1] = 1
 S1[B4,B45]: delta[B4,B45,0] + delta[B4,B45,1] + delta[B45,B4,0]
   + delta[B45,B4,1] = 1
 S1[B4,B46]: delta[B4,B46,0] + delta[B4,B46,1] + delta[B46,B4,0]
   + delta[B46,B4,1] = 1
 S1[B4,B47]: delta[B4,B47,0] + delta[B4,B47,1] + delta[B47,B4,0]
   + delta[B47,B4,1] = 1
 S1[B4,B48]: delta[B4,B48,0] + delta[B4,B48,1] + delta[B48,B4,0]
   + delta[B48,B4,1] = 1
 S1[B4,B49]: delta[B4,B49,0] + delta[B4,B49,1] + delta[B49,B4,0]
   + delta[B49,B4,1] = 1
 S1[B5,B6]: delta[B5,B6,0] + delta[B5,B6,1] + delta[B6,B5,0]
   + delta[B6,B5,1] = 1
 S1[B5,B7]: delta[B5,B7,0] + delta[B5,B7,1] + delta[B7,B5,0]
   + delta[B7,B5,1] = 1
 S1[B5,B8]: delta[B5,B8,0] + delta[B5,B8,1] + delta[B8,B5,0]
   + delta[B8,B5,1] = 1
 S1[B5,B9]: delta[B5,B9,0] + delta[B5,B9,1] + delta[B9,B5,0]
   + delta[B9,B5,1] = 1
 S1[B5,B10]: delta[B5,B10,0] + delta[B5,B10,1] + delta[B10,B5,0]
   + delta[B10,B5,1] = 1
 S1[B5,B11]: delta[B5,B11,0] + delta[B5,B11,1] + delta[B11,B5,0]
   + delta[B11,B5,1] = 1
 S1[B5,B12]: delta[B5,B12,0] + delta[B5,B12,1] + delta[B12,B5,0]
   + delta[B12,B5,1] = 1
 S1[B5,B13]: delta[B5,B13,0] + delta[B5,B13,1] + delta[B13,B5,0]
   + delta[B13,B5,1] = 1
 S1[B5,B14]: delta[B5,B14,0] + delta[B5,B14,1] + delta[B14,B5,0]
   + delta[B14,B5,1] = 1
 S1[B5,B15]: delta[B5,B15,0] + delta[B5,B15,1] + delta[B15,B5,0]
   + delta[B15,B5,1] = 1
 S1[B5,B16]: delta[B5,B16,0] + delta[B5,B16,1] + delta[B16,B5,0]
   + delta[B16,B5,1] = 1
 S1[B5,B17]: delta[B5,B17,0] + delta[B5,B17,1] + delta[B17,B5,0]
   + delta[B17,B5,1] = 1
 S1[B5,B18]: delta[B5,B18,0] + delta[B5,B18,1] + delta[B18,B5,0]
   + delta[B18,B5,1] = 1
 S1[B5,B19]: delta[B5,B19,0] + delta[B5,B19,1] + delta[B19,B5,0]
   + delta[B19,B5,1] = 1
 S1[B5,B20]: delta[B5,B20,0] + delta[B5,B20,1] + delta[B20,B5,0]
   + delta[B20,B5,1] = 1
 S1[B5,B21]: delta[B5,B21,0] + delta[B5,B21,1] + delta[B21,B5,0]
   + delta[B21,B5,1] = 1
 S1[B5,B22]: delta[B5,B22,0] + delta[B5,B22,1] + delta[B22,B5,0]
   + delta[B22,B5,1] = 1
 S1[B5,B23]: delta[B5,B23,0] + delta[B5,B23,1] + delta[B23,B5,0]
   + delta[B23,B5,1] = 1
 S1[B5,B24]: delta[B5,B24,0] + delta[B5,B24,1] + delta[B24,B5,0]
   + delta[B24,B5,1] = 1
 S1[B5,B25]: delta[B5,B25,0] + delta[B5,B25,1] + delta[B25,B5,0]
   + delta[B25,B5,1] = 1
 S1[B5,B26]: delta[B5,B26,0] + delta[B5,B26,1] + delta[B26,B5,0]
   + delta[B26,B5,1] = 1
 S1[B5,B27]: delta[B5,B27,0] + delta[B5,B27,1] + delta[B27,B5,0]
   + delta[B27,B5,1] = 1
 S1[B5,B28]: delta[B5,B28,0] + delta[B5,B28,1] + delta[B28,B5,0]
   + delta[B28,B5,1] = 1
 S1[B5,B29]: delta[B5,B29,0] + delta[B5,B29,1] + delta[B29,B5,0]
   + delta[B29,B5,1] = 1
 S1[B5,B30]: delta[B5,B30,0] + delta[B5,B30,1] + delta[B30,B5,0]
   + delta[B30,B5,1] = 1
 S1[B5,B31]: delta[B5,B31,0] + delta[B5,B31,1] + delta[B31,B5,0]
   + delta[B31,B5,1] = 1
 S1[B5,B32]: delta[B5,B32,0] + delta[B5,B32,1] + delta[B32,B5,0]
   + delta[B32,B5,1] = 1
 S1[B5,B33]: delta[B5,B33,0] + delta[B5,B33,1] + delta[B33,B5,0]
   + delta[B33,B5,1] = 1
 S1[B5,B34]: delta[B5,B34,0] + delta[B5,B34,1] + delta[B34,B5,0]
   + delta[B34,B5,1] = 1
 S1[B5,B35]: delta[B5,B35,0] + delta[B5,B35,1] + delta[B35,B5,0]
   + delta[B35,B5,1] = 1
 S1[B5,B36]: delta[B5,B36,0] + delta[B5,B36,1] + delta[B36,B5,0]
   + delta[B36,B5,1] = 1
 S1[B5,B37]: delta[B5,B37,0] + delta[B5,B37,1] + delta[B37,B5,0]
   + delta[B37,B5,1] = 1
 S1[B5,B38]: delta[B5,B38,0] + delta[B5,B38,1] + delta[B38,B5,0]
   + delta[B38,B5,1] = 1
 S1[B5,B39]: delta[B5,B39,0] + delta[B5,B39,1] + delta[B39,B5,0]
   + delta[B39,B5,1] = 1
 S1[B5,B40]: delta[B5,B40,0] + delta[B5,B40,1] + delta[B40,B5,0]
   + delta[B40,B5,1] = 1
 S1[B5,B41]: delta[B5,B41,0] + delta[B5,B41,1] + delta[B41,B5,0]
   + delta[B41,B5,1] = 1
 S1[B5,B42]: delta[B5,B42,0] + delta[B5,B42,1] + delta[B42,B5,0]
   + delta[B42,B5,1] = 1
 S1[B5,B43]: delta[B5,B43,0] + delta[B5,B43,1] + delta[B43,B5,0]
   + delta[B43,B5,1] = 1
 S1[B5,B44]: delta[B5,B44,0] + delta[B5,B44,1] + delta[B44,B5,0]
   + delta[B44,B5,1] = 1
 S1[B5,B45]: delta[B5,B45,0] + delta[B5,B45,1] + delta[B45,B5,0]
   + delta[B45,B5,1] = 1
 S1[B5,B46]: delta[B5,B46,0] + delta[B5,B46,1] + delta[B46,B5,0]
   + delta[B46,B5,1] = 1
 S1[B5,B47]: delta[B5,B47,0] + delta[B5,B47,1] + delta[B47,B5,0]
   + delta[B47,B5,1] = 1
 S1[B5,B48]: delta[B5,B48,0] + delta[B5,B48,1] + delta[B48,B5,0]
   + delta[B48,B5,1] = 1
 S1[B5,B49]: delta[B5,B49,0] + delta[B5,B49,1] + delta[B49,B5,0]
   + delta[B49,B5,1] = 1
 S1[B6,B7]: delta[B6,B7,0] + delta[B6,B7,1] + delta[B7,B6,0]
   + delta[B7,B6,1] = 1
 S1[B6,B8]: delta[B6,B8,0] + delta[B6,B8,1] + delta[B8,B6,0]
   + delta[B8,B6,1] = 1
 S1[B6,B9]: delta[B6,B9,0] + delta[B6,B9,1] + delta[B9,B6,0]
   + delta[B9,B6,1] = 1
 S1[B6,B10]: delta[B6,B10,0] + delta[B6,B10,1] + delta[B10,B6,0]
   + delta[B10,B6,1] = 1
 S1[B6,B11]: delta[B6,B11,0] + delta[B6,B11,1] + delta[B11,B6,0]
   + delta[B11,B6,1] = 1
 S1[B6,B12]: delta[B6,B12,0] + delta[B6,B12,1] + delta[B12,B6,0]
   + delta[B12,B6,1] = 1
 S1[B6,B13]: delta[B6,B13,0] + delta[B6,B13,1] + delta[B13,B6,0]
   + delta[B13,B6,1] = 1
 S1[B6,B14]: delta[B6,B14,0] + delta[B6,B14,1] + delta[B14,B6,0]
   + delta[B14,B6,1] = 1
 S1[B6,B15]: delta[B6,B15,0] + delta[B6,B15,1] + delta[B15,B6,0]
   + delta[B15,B6,1] = 1
 S1[B6,B16]: delta[B6,B16,0] + delta[B6,B16,1] + delta[B16,B6,0]
   + delta[B16,B6,1] = 1
 S1[B6,B17]: delta[B6,B17,0] + delta[B6,B17,1] + delta[B17,B6,0]
   + delta[B17,B6,1] = 1
 S1[B6,B18]: delta[B6,B18,0] + delta[B6,B18,1] + delta[B18,B6,0]
   + delta[B18,B6,1] = 1
 S1[B6,B19]: delta[B6,B19,0] + delta[B6,B19,1] + delta[B19,B6,0]
   + delta[B19,B6,1] = 1
 S1[B6,B20]: delta[B6,B20,0] + delta[B6,B20,1] + delta[B20,B6,0]
   + delta[B20,B6,1] = 1
 S1[B6,B21]: delta[B6,B21,0] + delta[B6,B21,1] + delta[B21,B6,0]
   + delta[B21,B6,1] = 1
 S1[B6,B22]: delta[B6,B22,0] + delta[B6,B22,1] + delta[B22,B6,0]
   + delta[B22,B6,1] = 1
 S1[B6,B23]: delta[B6,B23,0] + delta[B6,B23,1] + delta[B23,B6,0]
   + delta[B23,B6,1] = 1
 S1[B6,B24]: delta[B6,B24,0] + delta[B6,B24,1] + delta[B24,B6,0]
   + delta[B24,B6,1] = 1
 S1[B6,B25]: delta[B6,B25,0] + delta[B6,B25,1] + delta[B25,B6,0]
   + delta[B25,B6,1] = 1
 S1[B6,B26]: delta[B6,B26,0] + delta[B6,B26,1] + delta[B26,B6,0]
   + delta[B26,B6,1] = 1
 S1[B6,B27]: delta[B6,B27,0] + delta[B6,B27,1] + delta[B27,B6,0]
   + delta[B27,B6,1] = 1
 S1[B6,B28]: delta[B6,B28,0] + delta[B6,B28,1] + delta[B28,B6,0]
   + delta[B28,B6,1] = 1
 S1[B6,B29]: delta[B6,B29,0] + delta[B6,B29,1] + delta[B29,B6,0]
   + delta[B29,B6,1] = 1
 S1[B6,B30]: delta[B6,B30,0] + delta[B6,B30,1] + delta[B30,B6,0]
   + delta[B30,B6,1] = 1
 S1[B6,B31]: delta[B6,B31,0] + delta[B6,B31,1] + delta[B31,B6,0]
   + delta[B31,B6,1] = 1
 S1[B6,B32]: delta[B6,B32,0] + delta[B6,B32,1] + delta[B32,B6,0]
   + delta[B32,B6,1] = 1
 S1[B6,B33]: delta[B6,B33,0] + delta[B6,B33,1] + delta[B33,B6,0]
   + delta[B33,B6,1] = 1
 S1[B6,B34]: delta[B6,B34,0] + delta[B6,B34,1] + delta[B34,B6,0]
   + delta[B34,B6,1] = 1
 S1[B6,B35]: delta[B6,B35,0] + delta[B6,B35,1] + delta[B35,B6,0]
   + delta[B35,B6,1] = 1
 S1[B6,B36]: delta[B6,B36,0] + delta[B6,B36,1] + delta[B36,B6,0]
   + delta[B36,B6,1] = 1
 S1[B6,B37]: delta[B6,B37,0] + delta[B6,B37,1] + delta[B37,B6,0]
   + delta[B37,B6,1] = 1
 S1[B6,B38]: delta[B6,B38,0] + delta[B6,B38,1] + delta[B38,B6,0]
   + delta[B38,B6,1] = 1
 S1[B6,B39]: delta[B6,B39,0] + delta[B6,B39,1] + delta[B39,B6,0]
   + delta[B39,B6,1] = 1
 S1[B6,B40]: delta[B6,B40,0] + delta[B6,B40,1] + delta[B40,B6,0]
   + delta[B40,B6,1] = 1
 S1[B6,B41]: delta[B6,B41,0] + delta[B6,B41,1] + delta[B41,B6,0]
   + delta[B41,B6,1] = 1
 S1[B6,B42]: delta[B6,B42,0] + delta[B6,B42,1] + delta[B42,B6,0]
   + delta[B42,B6,1] = 1
 S1[B6,B43]: delta[B6,B43,0] + delta[B6,B43,1] + delta[B43,B6,0]
   + delta[B43,B6,1] = 1
 S1[B6,B44]: delta[B6,B44,0] + delta[B6,B44,1] + delta[B44,B6,0]
   + delta[B44,B6,1] = 1
 S1[B6,B45]: delta[B6,B45,0] + delta[B6,B45,1] + delta[B45,B6,0]
   + delta[B45,B6,1] = 1
 S1[B6,B46]: delta[B6,B46,0] + delta[B6,B46,1] + delta[B46,B6,0]
   + delta[B46,B6,1] = 1
 S1[B6,B47]: delta[B6,B47,0] + delta[B6,B47,1] + delta[B47,B6,0]
   + delta[B47,B6,1] = 1
 S1[B6,B48]: delta[B6,B48,0] + delta[B6,B48,1] + delta[B48,B6,0]
   + delta[B48,B6,1] = 1
 S1[B6,B49]: delta[B6,B49,0] + delta[B6,B49,1] + delta[B49,B6,0]
   + delta[B49,B6,1] = 1
 S1[B7,B8]: delta[B7,B8,0] + delta[B7,B8,1] + delta[B8,B7,0]
   + delta[B8,B7,1] = 1
 S1[B7,B9]: delta[B7,B9,0] + delta[B7,B9,1] + delta[B9,B7,0]
   + delta[B9,B7,1] = 1
 S1[B7,B10]: delta[B7,B10,0] + delta[B7,B10,1] + delta[B10,B7,0]
   + delta[B10,B7,1] = 1
 S1[B7,B11]: delta[B7,B11,0] + delta[B7,B11,1] + delta[B11,B7,0]
   + delta[B11,B7,1] = 1
 S1[B7,B12]: delta[B7,B12,0] + delta[B7,B12,1] + delta[B12,B7,0]
   + delta[B12,B7,1] = 1
 S1[B7,B13]: delta[B7,B13,0] + delta[B7,B13,1] + delta[B13,B7,0]
   + delta[B13,B7,1] = 1
 S1[B7,B14]: delta[B7,B14,0] + delta[B7,B14,1] + delta[B14,B7,0]
   + delta[B14,B7,1] = 1
 S1[B7,B15]: delta[B7,B15,0] + delta[B7,B15,1] + delta[B15,B7,0]
   + delta[B15,B7,1] = 1
 S1[B7,B16]: delta[B7,B16,0] + delta[B7,B16,1] + delta[B16,B7,0]
   + delta[B16,B7,1] = 1
 S1[B7,B17]: delta[B7,B17,0] + delta[B7,B17,1] + delta[B17,B7,0]
   + delta[B17,B7,1] = 1
 S1[B7,B18]: delta[B7,B18,0] + delta[B7,B18,1] + delta[B18,B7,0]
   + delta[B18,B7,1] = 1
 S1[B7,B19]: delta[B7,B19,0] + delta[B7,B19,1] + delta[B19,B7,0]
   + delta[B19,B7,1] = 1
 S1[B7,B20]: delta[B7,B20,0] + delta[B7,B20,1] + delta[B20,B7,0]
   + delta[B20,B7,1] = 1
 S1[B7,B21]: delta[B7,B21,0] + delta[B7,B21,1] + delta[B21,B7,0]
   + delta[B21,B7,1] = 1
 S1[B7,B22]: delta[B7,B22,0] + delta[B7,B22,1] + delta[B22,B7,0]
   + delta[B22,B7,1] = 1
 S1[B7,B23]: delta[B7,B23,0] + delta[B7,B23,1] + delta[B23,B7,0]
   + delta[B23,B7,1] = 1
 S1[B7,B24]: delta[B7,B24,0] + delta[B7,B24,1] + delta[B24,B7,0]
   + delta[B24,B7,1] = 1
 S1[B7,B25]: delta[B7,B25,0] + delta[B7,B25,1] + delta[B25,B7,0]
   + delta[B25,B7,1] = 1
 S1[B7,B26]: delta[B7,B26,0] + delta[B7,B26,1] + delta[B26,B7,0]
   + delta[B26,B7,1] = 1
 S1[B7,B27]: delta[B7,B27,0] + delta[B7,B27,1] + delta[B27,B7,0]
   + delta[B27,B7,1] = 1
 S1[B7,B28]: delta[B7,B28,0] + delta[B7,B28,1] + delta[B28,B7,0]
   + delta[B28,B7,1] = 1
 S1[B7,B29]: delta[B7,B29,0] + delta[B7,B29,1] + delta[B29,B7,0]
   + delta[B29,B7,1] = 1
 S1[B7,B30]: delta[B7,B30,0] + delta[B7,B30,1] + delta[B30,B7,0]
   + delta[B30,B7,1] = 1
 S1[B7,B31]: delta[B7,B31,0] + delta[B7,B31,1] + delta[B31,B7,0]
   + delta[B31,B7,1] = 1
 S1[B7,B32]: delta[B7,B32,0] + delta[B7,B32,1] + delta[B32,B7,0]
   + delta[B32,B7,1] = 1
 S1[B7,B33]: delta[B7,B33,0] + delta[B7,B33,1] + delta[B33,B7,0]
   + delta[B33,B7,1] = 1
 S1[B7,B34]: delta[B7,B34,0] + delta[B7,B34,1] + delta[B34,B7,0]
   + delta[B34,B7,1] = 1
 S1[B7,B35]: delta[B7,B35,0] + delta[B7,B35,1] + delta[B35,B7,0]
   + delta[B35,B7,1] = 1
 S1[B7,B36]: delta[B7,B36,0] + delta[B7,B36,1] + delta[B36,B7,0]
   + delta[B36,B7,1] = 1
 S1[B7,B37]: delta[B7,B37,0] + delta[B7,B37,1] + delta[B37,B7,0]
   + delta[B37,B7,1] = 1
 S1[B7,B38]: delta[B7,B38,0] + delta[B7,B38,1] + delta[B38,B7,0]
   + delta[B38,B7,1] = 1
 S1[B7,B39]: delta[B7,B39,0] + delta[B7,B39,1] + delta[B39,B7,0]
   + delta[B39,B7,1] = 1
 S1[B7,B40]: delta[B7,B40,0] + delta[B7,B40,1] + delta[B40,B7,0]
   + delta[B40,B7,1] = 1
 S1[B7,B41]: delta[B7,B41,0] + delta[B7,B41,1] + delta[B41,B7,0]
   + delta[B41,B7,1] = 1
 S1[B7,B42]: delta[B7,B42,0] + delta[B7,B42,1] + delta[B42,B7,0]
   + delta[B42,B7,1] = 1
 S1[B7,B43]: delta[B7,B43,0] + delta[B7,B43,1] + delta[B43,B7,0]
   + delta[B43,B7,1] = 1
 S1[B7,B44]: delta[B7,B44,0] + delta[B7,B44,1] + delta[B44,B7,0]
   + delta[B44,B7,1] = 1
 S1[B7,B45]: delta[B7,B45,0] + delta[B7,B45,1] + delta[B45,B7,0]
   + delta[B45,B7,1] = 1
 S1[B7,B46]: delta[B7,B46,0] + delta[B7,B46,1] + delta[B46,B7,0]
   + delta[B46,B7,1] = 1
 S1[B7,B47]: delta[B7,B47,0] + delta[B7,B47,1] + delta[B47,B7,0]
   + delta[B47,B7,1] = 1
 S1[B7,B48]: delta[B7,B48,0] + delta[B7,B48,1] + delta[B48,B7,0]
   + delta[B48,B7,1] = 1
 S1[B7,B49]: delta[B7,B49,0] + delta[B7,B49,1] + delta[B49,B7,0]
   + delta[B49,B7,1] = 1
 S1[B8,B9]: delta[B8,B9,0] + delta[B8,B9,1] + delta[B9,B8,0]
   + delta[B9,B8,1] = 1
 S1[B8,B10]: delta[B8,B10,0] + delta[B8,B10,1] + delta[B10,B8,0]
   + delta[B10,B8,1] = 1
 S1[B8,B11]: delta[B8,B11,0] + delta[B8,B11,1] + delta[B11,B8,0]
   + delta[B11,B8,1] = 1
 S1[B8,B12]: delta[B8,B12,0] + delta[B8,B12,1] + delta[B12,B8,0]
   + delta[B12,B8,1] = 1
 S1[B8,B13]: delta[B8,B13,0] + delta[B8,B13,1] + delta[B13,B8,0]
   + delta[B13,B8,1] = 1
 S1[B8,B14]: delta[B8,B14,0] + delta[B8,B14,1] + delta[B14,B8,0]
   + delta[B14,B8,1] = 1
 S1[B8,B15]: delta[B8,B15,0] + delta[B8,B15,1] + delta[B15,B8,0]
   + delta[B15,B8,1] = 1
 S1[B8,B16]: delta[B8,B16,0] + delta[B8,B16,1] + delta[B16,B8,0]
   + delta[B16,B8,1] = 1
 S1[B8,B17]: delta[B8,B17,0] + delta[B8,B17,1] + delta[B17,B8,0]
   + delta[B17,B8,1] = 1
 S1[B8,B18]: delta[B8,B18,0] + delta[B8,B18,1] + delta[B18,B8,0]
   + delta[B18,B8,1] = 1
 S1[B8,B19]: delta[B8,B19,0] + delta[B8,B19,1] + delta[B19,B8,0]
   + delta[B19,B8,1] = 1
 S1[B8,B20]: delta[B8,B20,0] + delta[B8,B20,1] + delta[B20,B8,0]
   + delta[B20,B8,1] = 1
 S1[B8,B21]: delta[B8,B21,0] + delta[B8,B21,1] + delta[B21,B8,0]
   + delta[B21,B8,1] = 1
 S1[B8,B22]: delta[B8,B22,0] + delta[B8,B22,1] + delta[B22,B8,0]
   + delta[B22,B8,1] = 1
 S1[B8,B23]: delta[B8,B23,0] + delta[B8,B23,1] + delta[B23,B8,0]
   + delta[B23,B8,1] = 1
 S1[B8,B24]: delta[B8,B24,0] + delta[B8,B24,1] + delta[B24,B8,0]
   + delta[B24,B8,1] = 1
 S1[B8,B25]: delta[B8,B25,0] + delta[B8,B25,1] + delta[B25,B8,0]
   + delta[B25,B8,1] = 1
 S1[B8,B26]: delta[B8,B26,0] + delta[B8,B26,1] + delta[B26,B8,0]
   + delta[B26,B8,1] = 1
 S1[B8,B27]: delta[B8,B27,0] + delta[B8,B27,1] + delta[B27,B8,0]
   + delta[B27,B8,1] = 1
 S1[B8,B28]: delta[B8,B28,0] + delta[B8,B28,1] + delta[B28,B8,0]
   + delta[B28,B8,1] = 1
 S1[B8,B29]: delta[B8,B29,0] + delta[B8,B29,1] + delta[B29,B8,0]
   + delta[B29,B8,1] = 1
 S1[B8,B30]: delta[B8,B30,0] + delta[B8,B30,1] + delta[B30,B8,0]
   + delta[B30,B8,1] = 1
 S1[B8,B31]: delta[B8,B31,0] + delta[B8,B31,1] + delta[B31,B8,0]
   + delta[B31,B8,1] = 1
 S1[B8,B32]: delta[B8,B32,0] + delta[B8,B32,1] + delta[B32,B8,0]
   + delta[B32,B8,1] = 1
 S1[B8,B33]: delta[B8,B33,0] + delta[B8,B33,1] + delta[B33,B8,0]
   + delta[B33,B8,1] = 1
 S1[B8,B34]: delta[B8,B34,0] + delta[B8,B34,1] + delta[B34,B8,0]
   + delta[B34,B8,1] = 1
 S1[B8,B35]: delta[B8,B35,0] + delta[B8,B35,1] + delta[B35,B8,0]
   + delta[B35,B8,1] = 1
 S1[B8,B36]: delta[B8,B36,0] + delta[B8,B36,1] + delta[B36,B8,0]
   + delta[B36,B8,1] = 1
 S1[B8,B37]: delta[B8,B37,0] + delta[B8,B37,1] + delta[B37,B8,0]
   + delta[B37,B8,1] = 1
 S1[B8,B38]: delta[B8,B38,0] + delta[B8,B38,1] + delta[B38,B8,0]
   + delta[B38,B8,1] = 1
 S1[B8,B39]: delta[B8,B39,0] + delta[B8,B39,1] + delta[B39,B8,0]
   + delta[B39,B8,1] = 1
 S1[B8,B40]: delta[B8,B40,0] + delta[B8,B40,1] + delta[B40,B8,0]
   + delta[B40,B8,1] = 1
 S1[B8,B41]: delta[B8,B41,0] + delta[B8,B41,1] + delta[B41,B8,0]
   + delta[B41,B8,1] = 1
 S1[B8,B42]: delta[B8,B42,0] + delta[B8,B42,1] + delta[B42,B8,0]
   + delta[B42,B8,1] = 1
 S1[B8,B43]: delta[B8,B43,0] + delta[B8,B43,1] + delta[B43,B8,0]
   + delta[B43,B8,1] = 1
 S1[B8,B44]: delta[B8,B44,0] + delta[B8,B44,1] + delta[B44,B8,0]
   + delta[B44,B8,1] = 1
 S1[B8,B45]: delta[B8,B45,0] + delta[B8,B45,1] + delta[B45,B8,0]
   + delta[B45,B8,1] = 1
 S1[B8,B46]: delta[B8,B46,0] + delta[B8,B46,1] + delta[B46,B8,0]
   + delta[B46,B8,1] = 1
 S1[B8,B47]: delta[B8,B47,0] + delta[B8,B47,1] + delta[B47,B8,0]
   + delta[B47,B8,1] = 1
 S1[B8,B48]: delta[B8,B48,0] + delta[B8,B48,1] + delta[B48,B8,0]
   + delta[B48,B8,1] = 1
 S1[B8,B49]: delta[B8,B49,0] + delta[B8,B49,1] + delta[B49,B8,0]
   + delta[B49,B8,1] = 1
 S1[B9,B10]: delta[B9,B10,0] + delta[B9,B10,1] + delta[B10,B9,0]
   + delta[B10,B9,1] = 1
 S1[B9,B11]: delta[B9,B11,0] + delta[B9,B11,1] + delta[B11,B9,0]
   + delta[B11,B9,1] = 1
 S1[B9,B12]: delta[B9,B12,0] + delta[B9,B12,1] + delta[B12,B9,0]
   + delta[B12,B9,1] = 1
 S1[B9,B13]: delta[B9,B13,0] + delta[B9,B13,1] + delta[B13,B9,0]
   + delta[B13,B9,1] = 1
 S1[B9,B14]: delta[B9,B14,0] + delta[B9,B14,1] + delta[B14,B9,0]
   + delta[B14,B9,1] = 1
 S1[B9,B15]: delta[B9,B15,0] + delta[B9,B15,1] + delta[B15,B9,0]
   + delta[B15,B9,1] = 1
 S1[B9,B16]: delta[B9,B16,0] + delta[B9,B16,1] + delta[B16,B9,0]
   + delta[B16,B9,1] = 1
 S1[B9,B17]: delta[B9,B17,0] + delta[B9,B17,1] + delta[B17,B9,0]
   + delta[B17,B9,1] = 1
 S1[B9,B18]: delta[B9,B18,0] + delta[B9,B18,1] + delta[B18,B9,0]
   + delta[B18,B9,1] = 1
 S1[B9,B19]: delta[B9,B19,0] + delta[B9,B19,1] + delta[B19,B9,0]
   + delta[B19,B9,1] = 1
 S1[B9,B20]: delta[B9,B20,0] + delta[B9,B20,1] + delta[B20,B9,0]
   + delta[B20,B9,1] = 1
 S1[B9,B21]: delta[B9,B21,0] + delta[B9,B21,1] + delta[B21,B9,0]
   + delta[B21,B9,1] = 1
 S1[B9,B22]: delta[B9,B22,0] + delta[B9,B22,1] + delta[B22,B9,0]
   + delta[B22,B9,1] = 1
 S1[B9,B23]: delta[B9,B23,0] + delta[B9,B23,1] + delta[B23,B9,0]
   + delta[B23,B9,1] = 1
 S1[B9,B24]: delta[B9,B24,0] + delta[B9,B24,1] + delta[B24,B9,0]
   + delta[B24,B9,1] = 1
 S1[B9,B25]: delta[B9,B25,0] + delta[B9,B25,1] + delta[B25,B9,0]
   + delta[B25,B9,1] = 1
 S1[B9,B26]: delta[B9,B26,0] + delta[B9,B26,1] + delta[B26,B9,0]
   + delta[B26,B9,1] = 1
 S1[B9,B27]: delta[B9,B27,0] + delta[B9,B27,1] + delta[B27,B9,0]
   + delta[B27,B9,1] = 1
 S1[B9,B28]: delta[B9,B28,0] + delta[B9,B28,1] + delta[B28,B9,0]
   + delta[B28,B9,1] = 1
 S1[B9,B29]: delta[B9,B29,0] + delta[B9,B29,1] + delta[B29,B9,0]
   + delta[B29,B9,1] = 1
 S1[B9,B30]: delta[B9,B30,0] + delta[B9,B30,1] + delta[B30,B9,0]
   + delta[B30,B9,1] = 1
 S1[B9,B31]: delta[B9,B31,0] + delta[B9,B31,1] + delta[B31,B9,0]
   + delta[B31,B9,1] = 1
 S1[B9,B32]: delta[B9,B32,0] + delta[B9,B32,1] + delta[B32,B9,0]
   + delta[B32,B9,1] = 1
 S1[B9,B33]: delta[B9,B33,0] + delta[B9,B33,1] + delta[B33,B9,0]
   + delta[B33,B9,1] = 1
 S1[B9,B34]: delta[B9,B34,0] + delta[B9,B34,1] + delta[B34,B9,0]
   + delta[B34,B9,1] = 1
 S1[B9,B35]: delta[B9,B35,0] + delta[B9,B35,1] + delta[B35,B9,0]
   + delta[B35,B9,1] = 1
 S1[B9,B36]: delta[B9,B36,0] + delta[B9,B36,1] + delta[B36,B9,0]
   + delta[B36,B9,1] = 1
 S1[B9,B37]: delta[B9,B37,0] + delta[B9,B37,1] + delta[B37,B9,0]
   + delta[B37,B9,1] = 1
 S1[B9,B38]: delta[B9,B38,0] + delta[B9,B38,1] + delta[B38,B9,0]
   + delta[B38,B9,1] = 1
 S1[B9,B39]: delta[B9,B39,0] + delta[B9,B39,1] + delta[B39,B9,0]
   + delta[B39,B9,1] = 1
 S1[B9,B40]: delta[B9,B40,0] + delta[B9,B40,1] + delta[B40,B9,0]
   + delta[B40,B9,1] = 1
 S1[B9,B41]: delta[B9,B41,0] + delta[B9,B41,1] + delta[B41,B9,0]
   + delta[B41,B9,1] = 1
 S1[B9,B42]: delta[B9,B42,0] + delta[B9,B42,1] + delta[B42,B9,0]
   + delta[B42,B9,1] = 1
 S1[B9,B43]: delta[B9,B43,0] + delta[B9,B43,1] + delta[B43,B9,0]
   + delta[B43,B9,1] = 1
 S1[B9,B44]: delta[B9,B44,0] + delta[B9,B44,1] + delta[B44,B9,0]
   + delta[B44,B9,1] = 1
 S1[B9,B45]: delta[B9,B45,0] + delta[B9,B45,1] + delta[B45,B9,0]
   + delta[B45,B9,1] = 1
 S1[B9,B46]: delta[B9,B46,0] + delta[B9,B46,1] + delta[B46,B9,0]
   + delta[B46,B9,1] = 1
 S1[B9,B47]: delta[B9,B47,0] + delta[B9,B47,1] + delta[B47,B9,0]
   + delta[B47,B9,1] = 1
 S1[B9,B48]: delta[B9,B48,0] + delta[B9,B48,1] + delta[B48,B9,0]
   + delta[B48,B9,1] = 1
 S1[B9,B49]: delta[B9,B49,0] + delta[B9,B49,1] + delta[B49,B9,0]
   + delta[B49,B9,1] = 1
 S1[B10,B11]: delta[B10,B11,0] + delta[B10,B11,1] + delta[B11,B10,0]
   + delta[B11,B10,1] = 1
 S1[B10,B12]: delta[B10,B12,0] + delta[B10,B12,1] + delta[B12,B10,0]
   + delta[B12,B10,1] = 1
 S1[B10,B13]: delta[B10,B13,0] + delta[B10,B13,1] + delta[B13,B10,0]
   + delta[B13,B10,1] = 1
 S1[B10,B14]: delta[B10,B14,0] + delta[B10,B14,1] + delta[B14,B10,0]
   + delta[B14,B10,1] = 1
 S1[B10,B15]: delta[B10,B15,0] + delta[B10,B15,1] + delta[B15,B10,0]
   + delta[B15,B10,1] = 1
 S1[B10,B16]: delta[B10,B16,0] + delta[B10,B16,1] + delta[B16,B10,0]
   + delta[B16,B10,1] = 1
 S1[B10,B17]: delta[B10,B17,0] + delta[B10,B17,1] + delta[B17,B10,0]
   + delta[B17,B10,1] = 1
 S1[B10,B18]: delta[B10,B18,0] + delta[B10,B18,1] + delta[B18,B10,0]
   + delta[B18,B10,1] = 1
 S1[B10,B19]: delta[B10,B19,0] + delta[B10,B19,1] + delta[B19,B10,0]
   + delta[B19,B10,1] = 1
 S1[B10,B20]: delta[B10,B20,0] + delta[B10,B20,1] + delta[B20,B10,0]
   + delta[B20,B10,1] = 1
 S1[B10,B21]: delta[B10,B21,0] + delta[B10,B21,1] + delta[B21,B10,0]
   + delta[B21,B10,1] = 1
 S1[B10,B22]: delta[B10,B22,0] + delta[B10,B22,1] + delta[B22,B10,0]
   + delta[B22,B10,1] = 1
 S1[B10,B23]: delta[B10,B23,0] + delta[B10,B23,1] + delta[B23,B10,0]
   + delta[B23,B10,1] = 1
 S1[B10,B24]: delta[B10,B24,0] + delta[B10,B24,1] + delta[B24,B10,0]
   + delta[B24,B10,1] = 1
 S1[B10,B25]: delta[B10,B25,0] + delta[B10,B25,1] + delta[B25,B10,0]
   + delta[B25,B10,1] = 1
 S1[B10,B26]: delta[B10,B26,0] + delta[B10,B26,1] + delta[B26,B10,0]
   + delta[B26,B10,1] = 1
 S1[B10,B27]: delta[B10,B27,0] + delta[B10,B27,1] + delta[B27,B10,0]
   + delta[B27,B10,1] = 1
 S1[B10,B28]: delta[B10,B28,0] + delta[B10,B28,1] + delta[B28,B10,0]
   + delta[B28,B10,1] = 1
 S1[B10,B29]: delta[B10,B29,0] + delta[B10,B29,1] + delta[B29,B10,0]
   + delta[B29,B10,1] = 1
 S1[B10,B30]: delta[B10,B30,0] + delta[B10,B30,1] + delta[B30,B10,0]
   + delta[B30,B10,1] = 1
 S1[B10,B31]: delta[B10,B31,0] + delta[B10,B31,1] + delta[B31,B10,0]
   + delta[B31,B10,1] = 1
 S1[B10,B32]: delta[B10,B32,0] + delta[B10,B32,1] + delta[B32,B10,0]
   + delta[B32,B10,1] = 1
 S1[B10,B33]: delta[B10,B33,0] + delta[B10,B33,1] + delta[B33,B10,0]
   + delta[B33,B10,1] = 1
 S1[B10,B34]: delta[B10,B34,0] + delta[B10,B34,1] + delta[B34,B10,0]
   + delta[B34,B10,1] = 1
 S1[B10,B35]: delta[B10,B35,0] + delta[B10,B35,1] + delta[B35,B10,0]
   + delta[B35,B10,1] = 1
 S1[B10,B36]: delta[B10,B36,0] + delta[B10,B36,1] + delta[B36,B10,0]
   + delta[B36,B10,1] = 1
 S1[B10,B37]: delta[B10,B37,0] + delta[B10,B37,1] + delta[B37,B10,0]
   + delta[B37,B10,1] = 1
 S1[B10,B38]: delta[B10,B38,0] + delta[B10,B38,1] + delta[B38,B10,0]
   + delta[B38,B10,1] = 1
 S1[B10,B39]: delta[B10,B39,0] + delta[B10,B39,1] + delta[B39,B10,0]
   + delta[B39,B10,1] = 1
 S1[B10,B40]: delta[B10,B40,0] + delta[B10,B40,1] + delta[B40,B10,0]
   + delta[B40,B10,1] = 1
 S1[B10,B41]: delta[B10,B41,0] + delta[B10,B41,1] + delta[B41,B10,0]
   + delta[B41,B10,1] = 1
 S1[B10,B42]: delta[B10,B42,0] + delta[B10,B42,1] + delta[B42,B10,0]
   + delta[B42,B10,1] = 1
 S1[B10,B43]: delta[B10,B43,0] + delta[B10,B43,1] + delta[B43,B10,0]
   + delta[B43,B10,1] = 1
 S1[B10,B44]: delta[B10,B44,0] + delta[B10,B44,1] + delta[B44,B10,0]
   + delta[B44,B10,1] = 1
 S1[B10,B45]: delta[B10,B45,0] + delta[B10,B45,1] + delta[B45,B10,0]
   + delta[B45,B10,1] = 1
 S1[B10,B46]: delta[B10,B46,0] + delta[B10,B46,1] + delta[B46,B10,0]
   + delta[B46,B10,1] = 1
 S1[B10,B47]: delta[B10,B47,0] + delta[B10,B47,1] + delta[B47,B10,0]
   + delta[B47,B10,1] = 1
 S1[B10,B48]: delta[B10,B48,0] + delta[B10,B48,1] + delta[B48,B10,0]
   + delta[B48,B10,1] = 1
 S1[B10,B49]: delta[B10,B49,0] + delta[B10,B49,1] + delta[B49,B10,0]
   + delta[B49,B10,1] = 1
 S1[B11,B12]: delta[B11,B12,0] + delta[B11,B12,1] + delta[B12,B11,0]
   + delta[B12,B11,1] = 1
 S1[B11,B13]: delta[B11,B13,0] + delta[B11,B13,1] + delta[B13,B11,0]
   + delta[B13,B11,1] = 1
 S1[B11,B14]: delta[B11,B14,0] + delta[B11,B14,1] + delta[B14,B11,0]
   + delta[B14,B11,1] = 1
 S1[B11,B15]: delta[B11,B15,0] + delta[B11,B15,1] + delta[B15,B11,0]
   + delta[B15,B11,1] = 1
 S1[B11,B16]: delta[B11,B16,0] + delta[B11,B16,1] + delta[B16,B11,0]
   + delta[B16,B11,1] = 1
 S1[B11,B17]: delta[B11,B17,0] + delta[B11,B17,1] + delta[B17,B11,0]
   + delta[B17,B11,1] = 1
 S1[B11,B18]: delta[B11,B18,0] + delta[B11,B18,1] + delta[B18,B11,0]
   + delta[B18,B11,1] = 1
 S1[B11,B19]: delta[B11,B19,0] + delta[B11,B19,1] + delta[B19,B11,0]
   + delta[B19,B11,1] = 1
 S1[B11,B20]: delta[B11,B20,0] + delta[B11,B20,1] + delta[B20,B11,0]
   + delta[B20,B11,1] = 1
 S1[B11,B21]: delta[B11,B21,0] + delta[B11,B21,1] + delta[B21,B11,0]
   + delta[B21,B11,1] = 1
 S1[B11,B22]: delta[B11,B22,0] + delta[B11,B22,1] + delta[B22,B11,0]
   + delta[B22,B11,1] = 1
 S1[B11,B23]: delta[B11,B23,0] + delta[B11,B23,1] + delta[B23,B11,0]
   + delta[B23,B11,1] = 1
 S1[B11,B24]: delta[B11,B24,0] + delta[B11,B24,1] + delta[B24,B11,0]
   + delta[B24,B11,1] = 1
 S1[B11,B25]: delta[B11,B25,0] + delta[B11,B25,1] + delta[B25,B11,0]
   + delta[B25,B11,1] = 1
 S1[B11,B26]: delta[B11,B26,0] + delta[B11,B26,1] + delta[B26,B11,0]
   + delta[B26,B11,1] = 1
 S1[B11,B27]: delta[B11,B27,0] + delta[B11,B27,1] + delta[B27,B11,0]
   + delta[B27,B11,1] = 1
 S1[B11,B28]: delta[B11,B28,0] + delta[B11,B28,1] + delta[B28,B11,0]
   + delta[B28,B11,1] = 1
 S1[B11,B29]: delta[B11,B29,0] + delta[B11,B29,1] + delta[B29,B11,0]
   + delta[B29,B11,1] = 1
 S1[B11,B30]: delta[B11,B30,0] + delta[B11,B30,1] + delta[B30,B11,0]
   + delta[B30,B11,1] = 1
 S1[B11,B31]: delta[B11,B31,0] + delta[B11,B31,1] + delta[B31,B11,0]
   + delta[B31,B11,1] = 1
 S1[B11,B32]: delta[B11,B32,0] + delta[B11,B32,1] + delta[B32,B11,0]
   + delta[B32,B11,1] = 1
 S1[B11,B33]: delta[B11,B33,0] + delta[B11,B33,1] + delta[B33,B11,0]
   + delta[B33,B11,1] = 1
 S1[B11,B34]: delta[B11,B34,0] + delta[B11,B34,1] + delta[B34,B11,0]
   + delta[B34,B11,1] = 1
 S1[B11,B35]: delta[B11,B35,0] + delta[B11,B35,1] + delta[B35,B11,0]
   + delta[B35,B11,1] = 1
 S1[B11,B36]: delta[B11,B36,0] + delta[B11,B36,1] + delta[B36,B11,0]
   + delta[B36,B11,1] = 1
 S1[B11,B37]: delta[B11,B37,0] + delta[B11,B37,1] + delta[B37,B11,0]
   + delta[B37,B11,1] = 1
 S1[B11,B38]: delta[B11,B38,0] + delta[B11,B38,1] + delta[B38,B11,0]
   + delta[B38,B11,1] = 1
 S1[B11,B39]: delta[B11,B39,0] + delta[B11,B39,1] + delta[B39,B11,0]
   + delta[B39,B11,1] = 1
 S1[B11,B40]: delta[B11,B40,0] + delta[B11,B40,1] + delta[B40,B11,0]
   + delta[B40,B11,1] = 1
 S1[B11,B41]: delta[B11,B41,0] + delta[B11,B41,1] + delta[B41,B11,0]
   + delta[B41,B11,1] = 1
 S1[B11,B42]: delta[B11,B42,0] + delta[B11,B42,1] + delta[B42,B11,0]
   + delta[B42,B11,1] = 1
 S1[B11,B43]: delta[B11,B43,0] + delta[B11,B43,1] + delta[B43,B11,0]
   + delta[B43,B11,1] = 1
 S1[B11,B44]: delta[B11,B44,0] + delta[B11,B44,1] + delta[B44,B11,0]
   + delta[B44,B11,1] = 1
 S1[B11,B45]: delta[B11,B45,0] + delta[B11,B45,1] + delta[B45,B11,0]
   + delta[B45,B11,1] = 1
 S1[B11,B46]: delta[B11,B46,0] + delta[B11,B46,1] + delta[B46,B11,0]
   + delta[B46,B11,1] = 1
 S1[B11,B47]: delta[B11,B47,0] + delta[B11,B47,1] + delta[B47,B11,0]
   + delta[B47,B11,1] = 1
 S1[B11,B48]: delta[B11,B48,0] + delta[B11,B48,1] + delta[B48,B11,0]
   + delta[B48,B11,1] = 1
 S1[B11,B49]: delta[B11,B49,0] + delta[B11,B49,1] + delta[B49,B11,0]
   + delta[B49,B11,1] = 1
 S1[B12,B13]: delta[B12,B13,0] + delta[B12,B13,1] + delta[B13,B12,0]
   + delta[B13,B12,1] = 1
 S1[B12,B14]: delta[B12,B14,0] + delta[B12,B14,1] + delta[B14,B12,0]
   + delta[B14,B12,1] = 1
 S1[B12,B15]: delta[B12,B15,0] + delta[B12,B15,1] + delta[B15,B12,0]
   + delta[B15,B12,1] = 1
 S1[B12,B16]: delta[B12,B16,0] + delta[B12,B16,1] + delta[B16,B12,0]
   + delta[B16,B12,1] = 1
 S1[B12,B17]: delta[B12,B17,0] + delta[B12,B17,1] + delta[B17,B12,0]
   + delta[B17,B12,1] = 1
 S1[B12,B18]: delta[B12,B18,0] + delta[B12,B18,1] + delta[B18,B12,0]
   + delta[B18,B12,1] = 1
 S1[B12,B19]: delta[B12,B19,0] + delta[B12,B19,1] + delta[B19,B12,0]
   + delta[B19,B12,1] = 1
 S1[B12,B20]: delta[B12,B20,0] + delta[B12,B20,1] + delta[B20,B12,0]
   + delta[B20,B12,1] = 1
 S1[B12,B21]: delta[B12,B21,0] + delta[B12,B21,1] + delta[B21,B12,0]
   + delta[B21,B12,1] = 1
 S1[B12,B22]: delta[B12,B22,0] + delta[B12,B22,1] + delta[B22,B12,0]
   + delta[B22,B12,1] = 1
 S1[B12,B23]: delta[B12,B23,0] + delta[B12,B23,1] + delta[B23,B12,0]
   + delta[B23,B12,1] = 1
 S1[B12,B24]: delta[B12,B24,0] + delta[B12,B24,1] + delta[B24,B12,0]
   + delta[B24,B12,1] = 1
 S1[B12,B25]: delta[B12,B25,0] + delta[B12,B25,1] + delta[B25,B12,0]
   + delta[B25,B12,1] = 1
 S1[B12,B26]: delta[B12,B26,0] + delta[B12,B26,1] + delta[B26,B12,0]
   + delta[B26,B12,1] = 1
 S1[B12,B27]: delta[B12,B27,0] + delta[B12,B27,1] + delta[B27,B12,0]
   + delta[B27,B12,1] = 1
 S1[B12,B28]: delta[B12,B28,0] + delta[B12,B28,1] + delta[B28,B12,0]
   + delta[B28,B12,1] = 1
 S1[B12,B29]: delta[B12,B29,0] + delta[B12,B29,1] + delta[B29,B12,0]
   + delta[B29,B12,1] = 1
 S1[B12,B30]: delta[B12,B30,0] + delta[B12,B30,1] + delta[B30,B12,0]
   + delta[B30,B12,1] = 1
 S1[B12,B31]: delta[B12,B31,0] + delta[B12,B31,1] + delta[B31,B12,0]
   + delta[B31,B12,1] = 1
 S1[B12,B32]: delta[B12,B32,0] + delta[B12,B32,1] + delta[B32,B12,0]
   + delta[B32,B12,1] = 1
 S1[B12,B33]: delta[B12,B33,0] + delta[B12,B33,1] + delta[B33,B12,0]
   + delta[B33,B12,1] = 1
 S1[B12,B34]: delta[B12,B34,0] + delta[B12,B34,1] + delta[B34,B12,0]
   + delta[B34,B12,1] = 1
 S1[B12,B35]: delta[B12,B35,0] + delta[B12,B35,1] + delta[B35,B12,0]
   + delta[B35,B12,1] = 1
 S1[B12,B36]: delta[B12,B36,0] + delta[B12,B36,1] + delta[B36,B12,0]
   + delta[B36,B12,1] = 1
 S1[B12,B37]: delta[B12,B37,0] + delta[B12,B37,1] + delta[B37,B12,0]
   + delta[B37,B12,1] = 1
 S1[B12,B38]: delta[B12,B38,0] + delta[B12,B38,1] + delta[B38,B12,0]
   + delta[B38,B12,1] = 1
 S1[B12,B39]: delta[B12,B39,0] + delta[B12,B39,1] + delta[B39,B12,0]
   + delta[B39,B12,1] = 1
 S1[B12,B40]: delta[B12,B40,0] + delta[B12,B40,1] + delta[B40,B12,0]
   + delta[B40,B12,1] = 1
 S1[B12,B41]: delta[B12,B41,0] + delta[B12,B41,1] + delta[B41,B12,0]
   + delta[B41,B12,1] = 1
 S1[B12,B42]: delta[B12,B42,0] + delta[B12,B42,1] + delta[B42,B12,0]
   + delta[B42,B12,1] = 1
 S1[B12,B43]: delta[B12,B43,0] + delta[B12,B43,1] + delta[B43,B12,0]
   + delta[B43,B12,1] = 1
 S1[B12,B44]: delta[B12,B44,0] + delta[B12,B44,1] + delta[B44,B12,0]
   + delta[B44,B12,1] = 1
 S1[B12,B45]: delta[B12,B45,0] + delta[B12,B45,1] + delta[B45,B12,0]
   + delta[B45,B12,1] = 1
 S1[B12,B46]: delta[B12,B46,0] + delta[B12,B46,1] + delta[B46,B12,0]
   + delta[B46,B12,1] = 1
 S1[B12,B47]: delta[B12,B47,0] + delta[B12,B47,1] + delta[B47,B12,0]
   + delta[B47,B12,1] = 1
 S1[B12,B48]: delta[B12,B48,0] + delta[B12,B48,1] + delta[B48,B12,0]
   + delta[B48,B12,1] = 1
 S1[B12,B49]: delta[B12,B49,0] + delta[B12,B49,1] + delta[B49,B12,0]
   + delta[B49,B12,1] = 1
 S1[B13,B14]: delta[B13,B14,0] + delta[B13,B14,1] + delta[B14,B13,0]
   + delta[B14,B13,1] = 1
 S1[B13,B15]: delta[B13,B15,0] + delta[B13,B15,1] + delta[B15,B13,0]
   + delta[B15,B13,1] = 1
 S1[B13,B16]: delta[B13,B16,0] + delta[B13,B16,1] + delta[B16,B13,0]
   + delta[B16,B13,1] = 1
 S1[B13,B17]: delta[B13,B17,0] + delta[B13,B17,1] + delta[B17,B13,0]
   + delta[B17,B13,1] = 1
 S1[B13,B18]: delta[B13,B18,0] + delta[B13,B18,1] + delta[B18,B13,0]
   + delta[B18,B13,1] = 1
 S1[B13,B19]: delta[B13,B19,0] + delta[B13,B19,1] + delta[B19,B13,0]
   + delta[B19,B13,1] = 1
 S1[B13,B20]: delta[B13,B20,0] + delta[B13,B20,1] + delta[B20,B13,0]
   + delta[B20,B13,1] = 1
 S1[B13,B21]: delta[B13,B21,0] + delta[B13,B21,1] + delta[B21,B13,0]
   + delta[B21,B13,1] = 1
 S1[B13,B22]: delta[B13,B22,0] + delta[B13,B22,1] + delta[B22,B13,0]
   + delta[B22,B13,1] = 1
 S1[B13,B23]: delta[B13,B23,0] + delta[B13,B23,1] + delta[B23,B13,0]
   + delta[B23,B13,1] = 1
 S1[B13,B24]: delta[B13,B24,0] + delta[B13,B24,1] + delta[B24,B13,0]
   + delta[B24,B13,1] = 1
 S1[B13,B25]: delta[B13,B25,0] + delta[B13,B25,1] + delta[B25,B13,0]
   + delta[B25,B13,1] = 1
 S1[B13,B26]: delta[B13,B26,0] + delta[B13,B26,1] + delta[B26,B13,0]
   + delta[B26,B13,1] = 1
 S1[B13,B27]: delta[B13,B27,0] + delta[B13,B27,1] + delta[B27,B13,0]
   + delta[B27,B13,1] = 1
 S1[B13,B28]: delta[B13,B28,0] + delta[B13,B28,1] + delta[B28,B13,0]
   + delta[B28,B13,1] = 1
 S1[B13,B29]: delta[B13,B29,0] + delta[B13,B29,1] + delta[B29,B13,0]
   + delta[B29,B13,1] = 1
 S1[B13,B30]: delta[B13,B30,0] + delta[B13,B30,1] + delta[B30,B13,0]
   + delta[B30,B13,1] = 1
 S1[B13,B31]: delta[B13,B31,0] + delta[B13,B31,1] + delta[B31,B13,0]
   + delta[B31,B13,1] = 1
 S1[B13,B32]: delta[B13,B32,0] + delta[B13,B32,1] + delta[B32,B13,0]
   + delta[B32,B13,1] = 1
 S1[B13,B33]: delta[B13,B33,0] + delta[B13,B33,1] + delta[B33,B13,0]
   + delta[B33,B13,1] = 1
 S1[B13,B34]: delta[B13,B34,0] + delta[B13,B34,1] + delta[B34,B13,0]
   + delta[B34,B13,1] = 1
 S1[B13,B35]: delta[B13,B35,0] + delta[B13,B35,1] + delta[B35,B13,0]
   + delta[B35,B13,1] = 1
 S1[B13,B36]: delta[B13,B36,0] + delta[B13,B36,1] + delta[B36,B13,0]
   + delta[B36,B13,1] = 1
 S1[B13,B37]: delta[B13,B37,0] + delta[B13,B37,1] + delta[B37,B13,0]
   + delta[B37,B13,1] = 1
 S1[B13,B38]: delta[B13,B38,0] + delta[B13,B38,1] + delta[B38,B13,0]
   + delta[B38,B13,1] = 1
 S1[B13,B39]: delta[B13,B39,0] + delta[B13,B39,1] + delta[B39,B13,0]
   + delta[B39,B13,1] = 1
 S1[B13,B40]: delta[B13,B40,0] + delta[B13,B40,1] + delta[B40,B13,0]
   + delta[B40,B13,1] = 1
 S1[B13,B41]: delta[B13,B41,0] + delta[B13,B41,1] + delta[B41,B13,0]
   + delta[B41,B13,1] = 1
 S1[B13,B42]: delta[B13,B42,0] + delta[B13,B42,1] + delta[B42,B13,0]
   + delta[B42,B13,1] = 1
 S1[B13,B43]: delta[B13,B43,0] + delta[B13,B43,1] + delta[B43,B13,0]
   + delta[B43,B13,1] = 1
 S1[B13,B44]: delta[B13,B44,0] + delta[B13,B44,1] + delta[B44,B13,0]
   + delta[B44,B13,1] = 1
 S1[B13,B45]: delta[B13,B45,0] + delta[B13,B45,1] + delta[B45,B13,0]
   + delta[B45,B13,1] = 1
 S1[B13,B46]: delta[B13,B46,0] + delta[B13,B46,1] + delta[B46,B13,0]
   + delta[B46,B13,1] = 1
 S1[B13,B47]: delta[B13,B47,0] + delta[B13,B47,1] + delta[B47,B13,0]
   + delta[B47,B13,1] = 1
 S1[B13,B48]: delta[B13,B48,0] + delta[B13,B48,1] + delta[B48,B13,0]
   + delta[B48,B13,1] = 1
 S1[B13,B49]: delta[B13,B49,0] + delta[B13,B49,1] + delta[B49,B13,0]
   + delta[B49,B13,1] = 1
 S1[B14,B15]: delta[B14,B15,0] + delta[B14,B15,1] + delta[B15,B14,0]
   + delta[B15,B14,1] = 1
 S1[B14,B16]: delta[B14,B16,0] + delta[B14,B16,1] + delta[B16,B14,0]
   + delta[B16,B14,1] = 1
 S1[B14,B17]: delta[B14,B17,0] + delta[B14,B17,1] + delta[B17,B14,0]
   + delta[B17,B14,1] = 1
 S1[B14,B18]: delta[B14,B18,0] + delta[B14,B18,1] + delta[B18,B14,0]
   + delta[B18,B14,1] = 1
 S1[B14,B19]: delta[B14,B19,0] + delta[B14,B19,1] + delta[B19,B14,0]
   + delta[B19,B14,1] = 1
 S1[B14,B20]: delta[B14,B20,0] + delta[B14,B20,1] + delta[B20,B14,0]
   + delta[B20,B14,1] = 1
 S1[B14,B21]: delta[B14,B21,0] + delta[B14,B21,1] + delta[B21,B14,0]
   + delta[B21,B14,1] = 1
 S1[B14,B22]: delta[B14,B22,0] + delta[B14,B22,1] + delta[B22,B14,0]
   + delta[B22,B14,1] = 1
 S1[B14,B23]: delta[B14,B23,0] + delta[B14,B23,1] + delta[B23,B14,0]
   + delta[B23,B14,1] = 1
 S1[B14,B24]: delta[B14,B24,0] + delta[B14,B24,1] + delta[B24,B14,0]
   + delta[B24,B14,1] = 1
 S1[B14,B25]: delta[B14,B25,0] + delta[B14,B25,1] + delta[B25,B14,0]
   + delta[B25,B14,1] = 1
 S1[B14,B26]: delta[B14,B26,0] + delta[B14,B26,1] + delta[B26,B14,0]
   + delta[B26,B14,1] = 1
 S1[B14,B27]: delta[B14,B27,0] + delta[B14,B27,1] + delta[B27,B14,0]
   + delta[B27,B14,1] = 1
 S1[B14,B28]: delta[B14,B28,0] + delta[B14,B28,1] + delta[B28,B14,0]
   + delta[B28,B14,1] = 1
 S1[B14,B29]: delta[B14,B29,0] + delta[B14,B29,1] + delta[B29,B14,0]
   + delta[B29,B14,1] = 1
 S1[B14,B30]: delta[B14,B30,0] + delta[B14,B30,1] + delta[B30,B14,0]
   + delta[B30,B14,1] = 1
 S1[B14,B31]: delta[B14,B31,0] + delta[B14,B31,1] + delta[B31,B14,0]
   + delta[B31,B14,1] = 1
 S1[B14,B32]: delta[B14,B32,0] + delta[B14,B32,1] + delta[B32,B14,0]
   + delta[B32,B14,1] = 1
 S1[B14,B33]: delta[B14,B33,0] + delta[B14,B33,1] + delta[B33,B14,0]
   + delta[B33,B14,1] = 1
 S1[B14,B34]: delta[B14,B34,0] + delta[B14,B34,1] + delta[B34,B14,0]
   + delta[B34,B14,1] = 1
 S1[B14,B35]: delta[B14,B35,0] + delta[B14,B35,1] + delta[B35,B14,0]
   + delta[B35,B14,1] = 1
 S1[B14,B36]: delta[B14,B36,0] + delta[B14,B36,1] + delta[B36,B14,0]
   + delta[B36,B14,1] = 1
 S1[B14,B37]: delta[B14,B37,0] + delta[B14,B37,1] + delta[B37,B14,0]
   + delta[B37,B14,1] = 1
 S1[B14,B38]: delta[B14,B38,0] + delta[B14,B38,1] + delta[B38,B14,0]
   + delta[B38,B14,1] = 1
 S1[B14,B39]: delta[B14,B39,0] + delta[B14,B39,1] + delta[B39,B14,0]
   + delta[B39,B14,1] = 1
 S1[B14,B40]: delta[B14,B40,0] + delta[B14,B40,1] + delta[B40,B14,0]
   + delta[B40,B14,1] = 1
 S1[B14,B41]: delta[B14,B41,0] + delta[B14,B41,1] + delta[B41,B14,0]
   + delta[B41,B14,1] = 1
 S1[B14,B42]: delta[B14,B42,0] + delta[B14,B42,1] + delta[B42,B14,0]
   + delta[B42,B14,1] = 1
 S1[B14,B43]: delta[B14,B43,0] + delta[B14,B43,1] + delta[B43,B14,0]
   + delta[B43,B14,1] = 1
 S1[B14,B44]: delta[B14,B44,0] + delta[B14,B44,1] + delta[B44,B14,0]
   + delta[B44,B14,1] = 1
 S1[B14,B45]: delta[B14,B45,0] + delta[B14,B45,1] + delta[B45,B14,0]
   + delta[B45,B14,1] = 1
 S1[B14,B46]: delta[B14,B46,0] + delta[B14,B46,1] + delta[B46,B14,0]
   + delta[B46,B14,1] = 1
 S1[B14,B47]: delta[B14,B47,0] + delta[B14,B47,1] + delta[B47,B14,0]
   + delta[B47,B14,1] = 1
 S1[B14,B48]: delta[B14,B48,0] + delta[B14,B48,1] + delta[B48,B14,0]
   + delta[B48,B14,1] = 1
 S1[B14,B49]: delta[B14,B49,0] + delta[B14,B49,1] + delta[B49,B14,0]
   + delta[B49,B14,1] = 1
 S1[B15,B16]: delta[B15,B16,0] + delta[B15,B16,1] + delta[B16,B15,0]
   + delta[B16,B15,1] = 1
 S1[B15,B17]: delta[B15,B17,0] + delta[B15,B17,1] + delta[B17,B15,0]
   + delta[B17,B15,1] = 1
 S1[B15,B18]: delta[B15,B18,0] + delta[B15,B18,1] + delta[B18,B15,0]
   + delta[B18,B15,1] = 1
 S1[B15,B19]: delta[B15,B19,0] + delta[B15,B19,1] + delta[B19,B15,0]
   + delta[B19,B15,1] = 1
 S1[B15,B20]: delta[B15,B20,0] + delta[B15,B20,1] + delta[B20,B15,0]
   + delta[B20,B15,1] = 1
 S1[B15,B21]: delta[B15,B21,0] + delta[B15,B21,1] + delta[B21,B15,0]
   + delta[B21,B15,1] = 1
 S1[B15,B22]: delta[B15,B22,0] + delta[B15,B22,1] + delta[B22,B15,0]
   + delta[B22,B15,1] = 1
 S1[B15,B23]: delta[B15,B23,0] + delta[B15,B23,1] + delta[B23,B15,0]
   + delta[B23,B15,1] = 1
 S1[B15,B24]: delta[B15,B24,0] + delta[B15,B24,1] + delta[B24,B15,0]
   + delta[B24,B15,1] = 1
 S1[B15,B25]: delta[B15,B25,0] + delta[B15,B25,1] + delta[B25,B15,0]
   + delta[B25,B15,1] = 1
 S1[B15,B26]: delta[B15,B26,0] + delta[B15,B26,1] + delta[B26,B15,0]
   + delta[B26,B15,1] = 1
 S1[B15,B27]: delta[B15,B27,0] + delta[B15,B27,1] + delta[B27,B15,0]
   + delta[B27,B15,1] = 1
 S1[B15,B28]: delta[B15,B28,0] + delta[B15,B28,1] + delta[B28,B15,0]
   + delta[B28,B15,1] = 1
 S1[B15,B29]: delta[B15,B29,0] + delta[B15,B29,1] + delta[B29,B15,0]
   + delta[B29,B15,1] = 1
 S1[B15,B30]: delta[B15,B30,0] + delta[B15,B30,1] + delta[B30,B15,0]
   + delta[B30,B15,1] = 1
 S1[B15,B31]: delta[B15,B31,0] + delta[B15,B31,1] + delta[B31,B15,0]
   + delta[B31,B15,1] = 1
 S1[B15,B32]: delta[B15,B32,0] + delta[B15,B32,1] + delta[B32,B15,0]
   + delta[B32,B15,1] = 1
 S1[B15,B33]: delta[B15,B33,0] + delta[B15,B33,1] + delta[B33,B15,0]
   + delta[B33,B15,1] = 1
 S1[B15,B34]: delta[B15,B34,0] + delta[B15,B34,1] + delta[B34,B15,0]
   + delta[B34,B15,1] = 1
 S1[B15,B35]: delta[B15,B35,0] + delta[B15,B35,1] + delta[B35,B15,0]
   + delta[B35,B15,1] = 1
 S1[B15,B36]: delta[B15,B36,0] + delta[B15,B36,1] + delta[B36,B15,0]
   + delta[B36,B15,1] = 1
 S1[B15,B37]: delta[B15,B37,0] + delta[B15,B37,1] + delta[B37,B15,0]
   + delta[B37,B15,1] = 1
 S1[B15,B38]: delta[B15,B38,0] + delta[B15,B38,1] + delta[B38,B15,0]
   + delta[B38,B15,1] = 1
 S1[B15,B39]: delta[B15,B39,0] + delta[B15,B39,1] + delta[B39,B15,0]
   + delta[B39,B15,1] = 1
 S1[B15,B40]: delta[B15,B40,0] + delta[B15,B40,1] + delta[B40,B15,0]
   + delta[B40,B15,1] = 1
 S1[B15,B41]: delta[B15,B41,0] + delta[B15,B41,1] + delta[B41,B15,0]
   + delta[B41,B15,1] = 1
 S1[B15,B42]: delta[B15,B42,0] + delta[B15,B42,1] + delta[B42,B15,0]
   + delta[B42,B15,1] = 1
 S1[B15,B43]: delta[B15,B43,0] + delta[B15,B43,1] + delta[B43,B15,0]
   + delta[B43,B15,1] = 1
 S1[B15,B44]: delta[B15,B44,0] + delta[B15,B44,1] + delta[B44,B15,0]
   + delta[B44,B15,1] = 1
 S1[B15,B45]: delta[B15,B45,0] + delta[B15,B45,1] + delta[B45,B15,0]
   + delta[B45,B15,1] = 1
 S1[B15,B46]: delta[B15,B46,0] + delta[B15,B46,1] + delta[B46,B15,0]
   + delta[B46,B15,1] = 1
 S1[B15,B47]: delta[B15,B47,0] + delta[B15,B47,1] + delta[B47,B15,0]
   + delta[B47,B15,1] = 1
 S1[B15,B48]: delta[B15,B48,0] + delta[B15,B48,1] + delta[B48,B15,0]
   + delta[B48,B15,1] = 1
 S1[B15,B49]: delta[B15,B49,0] + delta[B15,B49,1] + delta[B49,B15,0]
   + delta[B49,B15,1] = 1
 S1[B16,B17]: delta[B16,B17,0] + delta[B16,B17,1] + delta[B17,B16,0]
   + delta[B17,B16,1] = 1
 S1[B16,B18]: delta[B16,B18,0] + delta[B16,B18,1] + delta[B18,B16,0]
   + delta[B18,B16,1] = 1
 S1[B16,B19]: delta[B16,B19,0] + delta[B16,B19,1] + delta[B19,B16,0]
   + delta[B19,B16,1] = 1
 S1[B16,B20]: delta[B16,B20,0] + delta[B16,B20,1] + delta[B20,B16,0]
   + delta[B20,B16,1] = 1
 S1[B16,B21]: delta[B16,B21,0] + delta[B16,B21,1] + delta[B21,B16,0]
   + delta[B21,B16,1] = 1
 S1[B16,B22]: delta[B16,B22,0] + delta[B16,B22,1] + delta[B22,B16,0]
   + delta[B22,B16,1] = 1
 S1[B16,B23]: delta[B16,B23,0] + delta[B16,B23,1] + delta[B23,B16,0]
   + delta[B23,B16,1] = 1
 S1[B16,B24]: delta[B16,B24,0] + delta[B16,B24,1] + delta[B24,B16,0]
   + delta[B24,B16,1] = 1
 S1[B16,B25]: delta[B16,B25,0] + delta[B16,B25,1] + delta[B25,B16,0]
   + delta[B25,B16,1] = 1
 S1[B16,B26]: delta[B16,B26,0] + delta[B16,B26,1] + delta[B26,B16,0]
   + delta[B26,B16,1] = 1
 S1[B16,B27]: delta[B16,B27,0] + delta[B16,B27,1] + delta[B27,B16,0]
   + delta[B27,B16,1] = 1
 S1[B16,B28]: delta[B16,B28,0] + delta[B16,B28,1] + delta[B28,B16,0]
   + delta[B28,B16,1] = 1
 S1[B16,B29]: delta[B16,B29,0] + delta[B16,B29,1] + delta[B29,B16,0]
   + delta[B29,B16,1] = 1
 S1[B16,B30]: delta[B16,B30,0] + delta[B16,B30,1] + delta[B30,B16,0]
   + delta[B30,B16,1] = 1
 S1[B16,B31]: delta[B16,B31,0] + delta[B16,B31,1] + delta[B31,B16,0]
   + delta[B31,B16,1] = 1
 S1[B16,B32]: delta[B16,B32,0] + delta[B16,B32,1] + delta[B32,B16,0]
   + delta[B32,B16,1] = 1
 S1[B16,B33]: delta[B16,B33,0] + delta[B16,B33,1] + delta[B33,B16,0]
   + delta[B33,B16,1] = 1
 S1[B16,B34]: delta[B16,B34,0] + delta[B16,B34,1] + delta[B34,B16,0]
   + delta[B34,B16,1] = 1
 S1[B16,B35]: delta[B16,B35,0] + delta[B16,B35,1] + delta[B35,B16,0]
   + delta[B35,B16,1] = 1
 S1[B16,B36]: delta[B16,B36,0] + delta[B16,B36,1] + delta[B36,B16,0]
   + delta[B36,B16,1] = 1
 S1[B16,B37]: delta[B16,B37,0] + delta[B16,B37,1] + delta[B37,B16,0]
   + delta[B37,B16,1] = 1
 S1[B16,B38]: delta[B16,B38,0] + delta[B16,B38,1] + delta[B38,B16,0]
   + delta[B38,B16,1] = 1
 S1[B16,B39]: delta[B16,B39,0] + delta[B16,B39,1] + delta[B39,B16,0]
   + delta[B39,B16,1] = 1
 S1[B16,B40]: delta[B16,B40,0] + delta[B16,B40,1] + delta[B40,B16,0]
   + delta[B40,B16,1] = 1
 S1[B16,B41]: delta[B16,B41,0] + delta[B16,B41,1] + delta[B41,B16,0]
   + delta[B41,B16,1] = 1
 S1[B16,B42]: delta[B16,B42,0] + delta[B16,B42,1] + delta[B42,B16,0]
   + delta[B42,B16,1] = 1
 S1[B16,B43]: delta[B16,B43,0] + delta[B16,B43,1] + delta[B43,B16,0]
   + delta[B43,B16,1] = 1
 S1[B16,B44]: delta[B16,B44,0] + delta[B16,B44,1] + delta[B44,B16,0]
   + delta[B44,B16,1] = 1
 S1[B16,B45]: delta[B16,B45,0] + delta[B16,B45,1] + delta[B45,B16,0]
   + delta[B45,B16,1] = 1
 S1[B16,B46]: delta[B16,B46,0] + delta[B16,B46,1] + delta[B46,B16,0]
   + delta[B46,B16,1] = 1
 S1[B16,B47]: delta[B16,B47,0] + delta[B16,B47,1] + delta[B47,B16,0]
   + delta[B47,B16,1] = 1
 S1[B16,B48]: delta[B16,B48,0] + delta[B16,B48,1] + delta[B48,B16,0]
   + delta[B48,B16,1] = 1
 S1[B16,B49]: delta[B16,B49,0] + delta[B16,B49,1] + delta[B49,B16,0]
   + delta[B49,B16,1] = 1
 S1[B17,B18]: delta[B17,B18,0] + delta[B17,B18,1] + delta[B18,B17,0]
   + delta[B18,B17,1] = 1
 S1[B17,B19]: delta[B17,B19,0] + delta[B17,B19,1] + delta[B19,B17,0]
   + delta[B19,B17,1] = 1
 S1[B17,B20]: delta[B17,B20,0] + delta[B17,B20,1] + delta[B20,B17,0]
   + delta[B20,B17,1] = 1
 S1[B17,B21]: delta[B17,B21,0] + delta[B17,B21,1] + delta[B21,B17,0]
   + delta[B21,B17,1] = 1
 S1[B17,B22]: delta[B17,B22,0] + delta[B17,B22,1] + delta[B22,B17,0]
   + delta[B22,B17,1] = 1
 S1[B17,B23]: delta[B17,B23,0] + delta[B17,B23,1] + delta[B23,B17,0]
   + delta[B23,B17,1] = 1
 S1[B17,B24]: delta[B17,B24,0] + delta[B17,B24,1] + delta[B24,B17,0]
   + delta[B24,B17,1] = 1
 S1[B17,B25]: delta[B17,B25,0] + delta[B17,B25,1] + delta[B25,B17,0]
   + delta[B25,B17,1] = 1
 S1[B17,B26]: delta[B17,B26,0] + delta[B17,B26,1] + delta[B26,B17,0]
   + delta[B26,B17,1] = 1
 S1[B17,B27]: delta[B17,B27,0] + delta[B17,B27,1] + delta[B27,B17,0]
   + delta[B27,B17,1] = 1
 S1[B17,B28]: delta[B17,B28,0] + delta[B17,B28,1] + delta[B28,B17,0]
   + delta[B28,B17,1] = 1
 S1[B17,B29]: delta[B17,B29,0] + delta[B17,B29,1] + delta[B29,B17,0]
   + delta[B29,B17,1] = 1
 S1[B17,B30]: delta[B17,B30,0] + delta[B17,B30,1] + delta[B30,B17,0]
   + delta[B30,B17,1] = 1
 S1[B17,B31]: delta[B17,B31,0] + delta[B17,B31,1] + delta[B31,B17,0]
   + delta[B31,B17,1] = 1
 S1[B17,B32]: delta[B17,B32,0] + delta[B17,B32,1] + delta[B32,B17,0]
   + delta[B32,B17,1] = 1
 S1[B17,B33]: delta[B17,B33,0] + delta[B17,B33,1] + delta[B33,B17,0]
   + delta[B33,B17,1] = 1
 S1[B17,B34]: delta[B17,B34,0] + delta[B17,B34,1] + delta[B34,B17,0]
   + delta[B34,B17,1] = 1
 S1[B17,B35]: delta[B17,B35,0] + delta[B17,B35,1] + delta[B35,B17,0]
   + delta[B35,B17,1] = 1
 S1[B17,B36]: delta[B17,B36,0] + delta[B17,B36,1] + delta[B36,B17,0]
   + delta[B36,B17,1] = 1
 S1[B17,B37]: delta[B17,B37,0] + delta[B17,B37,1] + delta[B37,B17,0]
   + delta[B37,B17,1] = 1
 S1[B17,B38]: delta[B17,B38,0] + delta[B17,B38,1] + delta[B38,B17,0]
   + delta[B38,B17,1] = 1
 S1[B17,B39]: delta[B17,B39,0] + delta[B17,B39,1] + delta[B39,B17,0]
   + delta[B39,B17,1] = 1
 S1[B17,B40]: delta[B17,B40,0] + delta[B17,B40,1] + delta[B40,B17,0]
   + delta[B40,B17,1] = 1
 S1[B17,B41]: delta[B17,B41,0] + delta[B17,B41,1] + delta[B41,B17,0]
   + delta[B41,B17,1] = 1
 S1[B17,B42]: delta[B17,B42,0] + delta[B17,B42,1] + delta[B42,B17,0]
   + delta[B42,B17,1] = 1
 S1[B17,B43]: delta[B17,B43,0] + delta[B17,B43,1] + delta[B43,B17,0]
   + delta[B43,B17,1] = 1
 S1[B17,B44]: delta[B17,B44,0] + delta[B17,B44,1] + delta[B44,B17,0]
   + delta[B44,B17,1] = 1
 S1[B17,B45]: delta[B17,B45,0] + delta[B17,B45,1] + delta[B45,B17,0]
   + delta[B45,B17,1] = 1
 S1[B17,B46]: delta[B17,B46,0] + delta[B17,B46,1] + delta[B46,B17,0]
   + delta[B46,B17,1] = 1
 S1[B17,B47]: delta[B17,B47,0] + delta[B17,B47,1] + delta[B47,B17,0]
   + delta[B47,B17,1] = 1
 S1[B17,B48]: delta[B17,B48,0] + delta[B17,B48,1] + delta[B48,B17,0]
   + delta[B48,B17,1] = 1
 S1[B17,B49]: delta[B17,B49,0] + delta[B17,B49,1] + delta[B49,B17,0]
   + delta[B49,B17,1] = 1
 S1[B18,B19]: delta[B18,B19,0] + delta[B18,B19,1] + delta[B19,B18,0]
   + delta[B19,B18,1] = 1
 S1[B18,B20]: delta[B18,B20,0] + delta[B18,B20,1] + delta[B20,B18,0]
   + delta[B20,B18,1] = 1
 S1[B18,B21]: delta[B18,B21,0] + delta[B18,B21,1] + delta[B21,B18,0]
   + delta[B21,B18,1] = 1
 S1[B18,B22]: delta[B18,B22,0] + delta[B18,B22,1] + delta[B22,B18,0]
   + delta[B22,B18,1] = 1
 S1[B18,B23]: delta[B18,B23,0] + delta[B18,B23,1] + delta[B23,B18,0]
   + delta[B23,B18,1] = 1
 S1[B18,B24]: delta[B18,B24,0] + delta[B18,B24,1] + delta[B24,B18,0]
   + delta[B24,B18,1] = 1
 S1[B18,B25]: delta[B18,B25,0] + delta[B18,B25,1] + delta[B25,B18,0]
   + delta[B25,B18,1] = 1
 S1[B18,B26]: delta[B18,B26,0] + delta[B18,B26,1] + delta[B26,B18,0]
   + delta[B26,B18,1] = 1
 S1[B18,B27]: delta[B18,B27,0] + delta[B18,B27,1] + delta[B27,B18,0]
   + delta[B27,B18,1] = 1
 S1[B18,B28]: delta[B18,B28,0] + delta[B18,B28,1] + delta[B28,B18,0]
   + delta[B28,B18,1] = 1
 S1[B18,B29]: delta[B18,B29,0] + delta[B18,B29,1] + delta[B29,B18,0]
   + delta[B29,B18,1] = 1
 S1[B18,B30]: delta[B18,B30,0] + delta[B18,B30,1] + delta[B30,B18,0]
   + delta[B30,B18,1] = 1
 S1[B18,B31]: delta[B18,B31,0] + delta[B18,B31,1] + delta[B31,B18,0]
   + delta[B31,B18,1] = 1
 S1[B18,B32]: delta[B18,B32,0] + delta[B18,B32,1] + delta[B32,B18,0]
   + delta[B32,B18,1] = 1
 S1[B18,B33]: delta[B18,B33,0] + delta[B18,B33,1] + delta[B33,B18,0]
   + delta[B33,B18,1] = 1
 S1[B18,B34]: delta[B18,B34,0] + delta[B18,B34,1] + delta[B34,B18,0]
   + delta[B34,B18,1] = 1
 S1[B18,B35]: delta[B18,B35,0] + delta[B18,B35,1] + delta[B35,B18,0]
   + delta[B35,B18,1] = 1
 S1[B18,B36]: delta[B18,B36,0] + delta[B18,B36,1] + delta[B36,B18,0]
   + delta[B36,B18,1] = 1
 S1[B18,B37]: delta[B18,B37,0] + delta[B18,B37,1] + delta[B37,B18,0]
   + delta[B37,B18,1] = 1
 S1[B18,B38]: delta[B18,B38,0] + delta[B18,B38,1] + delta[B38,B18,0]
   + delta[B38,B18,1] = 1
 S1[B18,B39]: delta[B18,B39,0] + delta[B18,B39,1] + delta[B39,B18,0]
   + delta[B39,B18,1] = 1
 S1[B18,B40]: delta[B18,B40,0] + delta[B18,B40,1] + delta[B40,B18,0]
   + delta[B40,B18,1] = 1
 S1[B18,B41]: delta[B18,B41,0] + delta[B18,B41,1] + delta[B41,B18,0]
   + delta[B41,B18,1] = 1
 S1[B18,B42]: delta[B18,B42,0] + delta[B18,B42,1] + delta[B42,B18,0]
   + delta[B42,B18,1] = 1
 S1[B18,B43]: delta[B18,B43,0] + delta[B18,B43,1] + delta[B43,B18,0]
   + delta[B43,B18,1] = 1
 S1[B18,B44]: delta[B18,B44,0] + delta[B18,B44,1] + delta[B44,B18,0]
   + delta[B44,B18,1] = 1
 S1[B18,B45]: delta[B18,B45,0] + delta[B18,B45,1] + delta[B45,B18,0]
   + delta[B45,B18,1] = 1
 S1[B18,B46]: delta[B18,B46,0] + delta[B18,B46,1] + delta[B46,B18,0]
   + delta[B46,B18,1] = 1
 S1[B18,B47]: delta[B18,B47,0] + delta[B18,B47,1] + delta[B47,B18,0]
   + delta[B47,B18,1] = 1
 S1[B18,B48]: delta[B18,B48,0] + delta[B18,B48,1] + delta[B48,B18,0]
   + delta[B48,B18,1] = 1
 S1[B18,B49]: delta[B18,B49,0] + delta[B18,B49,1] + delta[B49,B18,0]
   + delta[B49,B18,1] = 1
 S1[B19,B20]: delta[B19,B20,0] + delta[B19,B20,1] + delta[B20,B19,0]
   + delta[B20,B19,1] = 1
 S1[B19,B21]: delta[B19,B21,0] + delta[B19,B21,1] + delta[B21,B19,0]
   + delta[B21,B19,1] = 1
 S1[B19,B22]: delta[B19,B22,0] + delta[B19,B22,1] + delta[B22,B19,0]
   + delta[B22,B19,1] = 1
 S1[B19,B23]: delta[B19,B23,0] + delta[B19,B23,1] + delta[B23,B19,0]
   + delta[B23,B19,1] = 1
 S1[B19,B24]: delta[B19,B24,0] + delta[B19,B24,1] + delta[B24,B19,0]
   + delta[B24,B19,1] = 1
 S1[B19,B25]: delta[B19,B25,0] + delta[B19,B25,1] + delta[B25,B19,0]
   + delta[B25,B19,1] = 1
 S1[B19,B26]: delta[B19,B26,0] + delta[B19,B26,1] + delta[B26,B19,0]
   + delta[B26,B19,1] = 1
 S1[B19,B27]: delta[B19,B27,0] + delta[B19,B27,1] + delta[B27,B19,0]
   + delta[B27,B19,1] = 1
 S1[B19,B28]: delta[B19,B28,0] + delta[B19,B28,1] + delta[B28,B19,0]
   + delta[B28,B19,1] = 1
 S1[B19,B29]: delta[B19,B29,0] + delta[B19,B29,1] + delta[B29,B19,0]
   + delta[B29,B19,1] = 1
 S1[B19,B30]: delta[B19,B30,0] + delta[B19,B30,1] + delta[B30,B19,0]
   + delta[B30,B19,1] = 1
 S1[B19,B31]: delta[B19,B31,0] + delta[B19,B31,1] + delta[B31,B19,0]
   + delta[B31,B19,1] = 1
 S1[B19,B32]: delta[B19,B32,0] + delta[B19,B32,1] + delta[B32,B19,0]
   + delta[B32,B19,1] = 1
 S1[B19,B33]: delta[B19,B33,0] + delta[B19,B33,1] + delta[B33,B19,0]
   + delta[B33,B19,1] = 1
 S1[B19,B34]: delta[B19,B34,0] + delta[B19,B34,1] + delta[B34,B19,0]
   + delta[B34,B19,1] = 1
 S1[B19,B35]: delta[B19,B35,0] + delta[B19,B35,1] + delta[B35,B19,0]
   + delta[B35,B19,1] = 1
 S1[B19,B36]: delta[B19,B36,0] + delta[B19,B36,1] + delta[B36,B19,0]
   + delta[B36,B19,1] = 1
 S1[B19,B37]: delta[B19,B37,0] + delta[B19,B37,1] + delta[B37,B19,0]
   + delta[B37,B19,1] = 1
 S1[B19,B38]: delta[B19,B38,0] + delta[B19,B38,1] + delta[B38,B19,0]
   + delta[B38,B19,1] = 1
 S1[B19,B39]: delta[B19,B39,0] + delta[B19,B39,1] + delta[B39,B19,0]
   + delta[B39,B19,1] = 1
 S1[B19,B40]: delta[B19,B40,0] + delta[B19,B40,1] + delta[B40,B19,0]
   + delta[B40,B19,1] = 1
 S1[B19,B41]: delta[B19,B41,0] + delta[B19,B41,1] + delta[B41,B19,0]
   + delta[B41,B19,1] = 1
 S1[B19,B42]: delta[B19,B42,0] + delta[B19,B42,1] + delta[B42,B19,0]
   + delta[B42,B19,1] = 1
 S1[B19,B43]: delta[B19,B43,0] + delta[B19,B43,1] + delta[B43,B19,0]
   + delta[B43,B19,1] = 1
 S1[B19,B44]: delta[B19,B44,0] + delta[B19,B44,1] + delta[B44,B19,0]
   + delta[B44,B19,1] = 1
 S1[B19,B45]: delta[B19,B45,0] + delta[B19,B45,1] + delta[B45,B19,0]
   + delta[B45,B19,1] = 1
 S1[B19,B46]: delta[B19,B46,0] + delta[B19,B46,1] + delta[B46,B19,0]
   + delta[B46,B19,1] = 1
 S1[B19,B47]: delta[B19,B47,0] + delta[B19,B47,1] + delta[B47,B19,0]
   + delta[B47,B19,1] = 1
 S1[B19,B48]: delta[B19,B48,0] + delta[B19,B48,1] + delta[B48,B19,0]
   + delta[B48,B19,1] = 1
 S1[B19,B49]: delta[B19,B49,0] + delta[B19,B49,1] + delta[B49,B19,0]
   + delta[B49,B19,1] = 1
 S1[B20,B21]: delta[B20,B21,0] + delta[B20,B21,1] + delta[B21,B20,0]
   + delta[B21,B20,1] = 1
 S1[B20,B22]: delta[B20,B22,0] + delta[B20,B22,1] + delta[B22,B20,0]
   + delta[B22,B20,1] = 1
 S1[B20,B23]: delta[B20,B23,0] + delta[B20,B23,1] + delta[B23,B20,0]
   + delta[B23,B20,1] = 1
 S1[B20,B24]: delta[B20,B24,0] + delta[B20,B24,1] + delta[B24,B20,0]
   + delta[B24,B20,1] = 1
 S1[B20,B25]: delta[B20,B25,0] + delta[B20,B25,1] + delta[B25,B20,0]
   + delta[B25,B20,1] = 1
 S1[B20,B26]: delta[B20,B26,0] + delta[B20,B26,1] + delta[B26,B20,0]
   + delta[B26,B20,1] = 1
 S1[B20,B27]: delta[B20,B27,0] + delta[B20,B27,1] + delta[B27,B20,0]
   + delta[B27,B20,1] = 1
 S1[B20,B28]: delta[B20,B28,0] + delta[B20,B28,1] + delta[B28,B20,0]
   + delta[B28,B20,1] = 1
 S1[B20,B29]: delta[B20,B29,0] + delta[B20,B29,1] + delta[B29,B20,0]
   + delta[B29,B20,1] = 1
 S1[B20,B30]: delta[B20,B30,0] + delta[B20,B30,1] + delta[B30,B20,0]
   + delta[B30,B20,1] = 1
 S1[B20,B31]: delta[B20,B31,0] + delta[B20,B31,1] + delta[B31,B20,0]
   + delta[B31,B20,1] = 1
 S1[B20,B32]: delta[B20,B32,0] + delta[B20,B32,1] + delta[B32,B20,0]
   + delta[B32,B20,1] = 1
 S1[B20,B33]: delta[B20,B33,0] + delta[B20,B33,1] + delta[B33,B20,0]
   + delta[B33,B20,1] = 1
 S1[B20,B34]: delta[B20,B34,0] + delta[B20,B34,1] + delta[B34,B20,0]
   + delta[B34,B20,1] = 1
 S1[B20,B35]: delta[B20,B35,0] + delta[B20,B35,1] + delta[B35,B20,0]
   + delta[B35,B20,1] = 1
 S1[B20,B36]: delta[B20,B36,0] + delta[B20,B36,1] + delta[B36,B20,0]
   + delta[B36,B20,1] = 1
 S1[B20,B37]: delta[B20,B37,0] + delta[B20,B37,1] + delta[B37,B20,0]
   + delta[B37,B20,1] = 1
 S1[B20,B38]: delta[B20,B38,0] + delta[B20,B38,1] + delta[B38,B20,0]
   + delta[B38,B20,1] = 1
 S1[B20,B39]: delta[B20,B39,0] + delta[B20,B39,1] + delta[B39,B20,0]
   + delta[B39,B20,1] = 1
 S1[B20,B40]: delta[B20,B40,0] + delta[B20,B40,1] + delta[B40,B20,0]
   + delta[B40,B20,1] = 1
 S1[B20,B41]: delta[B20,B41,0] + delta[B20,B41,1] + delta[B41,B20,0]
   + delta[B41,B20,1] = 1
 S1[B20,B42]: delta[B20,B42,0] + delta[B20,B42,1] + delta[B42,B20,0]
   + delta[B42,B20,1] = 1
 S1[B20,B43]: delta[B20,B43,0] + delta[B20,B43,1] + delta[B43,B20,0]
   + delta[B43,B20,1] = 1
 S1[B20,B44]: delta[B20,B44,0] + delta[B20,B44,1] + delta[B44,B20,0]
   + delta[B44,B20,1] = 1
 S1[B20,B45]: delta[B20,B45,0] + delta[B20,B45,1] + delta[B45,B20,0]
   + delta[B45,B20,1] = 1
 S1[B20,B46]: delta[B20,B46,0] + delta[B20,B46,1] + delta[B46,B20,0]
   + delta[B46,B20,1] = 1
 S1[B20,B47]: delta[B20,B47,0] + delta[B20,B47,1] + delta[B47,B20,0]
   + delta[B47,B20,1] = 1
 S1[B20,B48]: delta[B20,B48,0] + delta[B20,B48,1] + delta[B48,B20,0]
   + delta[B48,B20,1] = 1
 S1[B20,B49]: delta[B20,B49,0] + delta[B20,B49,1] + delta[B49,B20,0]
   + delta[B49,B20,1] = 1
 S1[B21,B22]: delta[B21,B22,0] + delta[B21,B22,1] + delta[B22,B21,0]
   + delta[B22,B21,1] = 1
 S1[B21,B23]: delta[B21,B23,0] + delta[B21,B23,1] + delta[B23,B21,0]
   + delta[B23,B21,1] = 1
 S1[B21,B24]: delta[B21,B24,0] + delta[B21,B24,1] + delta[B24,B21,0]
   + delta[B24,B21,1] = 1
 S1[B21,B25]: delta[B21,B25,0] + delta[B21,B25,1] + delta[B25,B21,0]
   + delta[B25,B21,1] = 1
 S1[B21,B26]: delta[B21,B26,0] + delta[B21,B26,1] + delta[B26,B21,0]
   + delta[B26,B21,1] = 1
 S1[B21,B27]: delta[B21,B27,0] + delta[B21,B27,1] + delta[B27,B21,0]
   + delta[B27,B21,1] = 1
 S1[B21,B28]: delta[B21,B28,0] + delta[B21,B28,1] + delta[B28,B21,0]
   + delta[B28,B21,1] = 1
 S1[B21,B29]: delta[B21,B29,0] + delta[B21,B29,1] + delta[B29,B21,0]
   + delta[B29,B21,1] = 1
 S1[B21,B30]: delta[B21,B30,0] + delta[B21,B30,1] + delta[B30,B21,0]
   + delta[B30,B21,1] = 1
 S1[B21,B31]: delta[B21,B31,0] + delta[B21,B31,1] + delta[B31,B21,0]
   + delta[B31,B21,1] = 1
 S1[B21,B32]: delta[B21,B32,0] + delta[B21,B32,1] + delta[B32,B21,0]
   + delta[B32,B21,1] = 1
 S1[B21,B33]: delta[B21,B33,0] + delta[B21,B33,1] + delta[B33,B21,0]
   + delta[B33,B21,1] = 1
 S1[B21,B34]: delta[B21,B34,0] + delta[B21,B34,1] + delta[B34,B21,0]
   + delta[B34,B21,1] = 1
 S1[B21,B35]: delta[B21,B35,0] + delta[B21,B35,1] + delta[B35,B21,0]
   + delta[B35,B21,1] = 1
 S1[B21,B36]: delta[B21,B36,0] + delta[B21,B36,1] + delta[B36,B21,0]
   + delta[B36,B21,1] = 1
 S1[B21,B37]: delta[B21,B37,0] + delta[B21,B37,1] + delta[B37,B21,0]
   + delta[B37,B21,1] = 1
 S1[B21,B38]: delta[B21,B38,0] + delta[B21,B38,1] + delta[B38,B21,0]
   + delta[B38,B21,1] = 1
 S1[B21,B39]: delta[B21,B39,0] + delta[B21,B39,1] + delta[B39,B21,0]
   + delta[B39,B21,1] = 1
 S1[B21,B40]: delta[B21,B40,0] + delta[B21,B40,1] + delta[B40,B21,0]
   + delta[B40,B21,1] = 1
 S1[B21,B41]: delta[B21,B41,0] + delta[B21,B41,1] + delta[B41,B21,0]
   + delta[B41,B21,1] = 1
 S1[B21,B42]: delta[B21,B42,0] + delta[B21,B42,1] + delta[B42,B21,0]
   + delta[B42,B21,1] = 1
 S1[B21,B43]: delta[B21,B43,0] + delta[B21,B43,1] + delta[B43,B21,0]
   + delta[B43,B21,1] = 1
 S1[B21,B44]: delta[B21,B44,0] + delta[B21,B44,1] + delta[B44,B21,0]
   + delta[B44,B21,1] = 1
 S1[B21,B45]: delta[B21,B45,0] + delta[B21,B45,1] + delta[B45,B21,0]
   + delta[B45,B21,1] = 1
 S1[B21,B46]: delta[B21,B46,0] + delta[B21,B46,1] + delta[B46,B21,0]
   + delta[B46,B21,1] = 1
 S1[B21,B47]: delta[B21,B47,0] + delta[B21,B47,1] + delta[B47,B21,0]
   + delta[B47,B21,1] = 1
 S1[B21,B48]: delta[B21,B48,0] + delta[B21,B48,1] + delta[B48,B21,0]
   + delta[B48,B21,1] = 1
 S1[B21,B49]: delta[B21,B49,0] + delta[B21,B49,1] + delta[B49,B21,0]
   + delta[B49,B21,1] = 1
 S1[B22,B23]: delta[B22,B23,0] + delta[B22,B23,1] + delta[B23,B22,0]
   + delta[B23,B22,1] = 1
 S1[B22,B24]: delta[B22,B24,0] + delta[B22,B24,1] + delta[B24,B22,0]
   + delta[B24,B22,1] = 1
 S1[B22,B25]: delta[B22,B25,0] + delta[B22,B25,1] + delta[B25,B22,0]
   + delta[B25,B22,1] = 1
 S1[B22,B26]: delta[B22,B26,0] + delta[B22,B26,1] + delta[B26,B22,0]
   + delta[B26,B22,1] = 1
 S1[B22,B27]: delta[B22,B27,0] + delta[B22,B27,1] + delta[B27,B22,0]
   + delta[B27,B22,1] = 1
 S1[B22,B28]: delta[B22,B28,0] + delta[B22,B28,1] + delta[B28,B22,0]
   + delta[B28,B22,1] = 1
 S1[B22,B29]: delta[B22,B29,0] + delta[B22,B29,1] + delta[B29,B22,0]
   + delta[B29,B22,1] = 1
 S1[B22,B30]: delta[B22,B30,0] + delta[B22,B30,1] + delta[B30,B22,0]
   + delta[B30,B22,1] = 1
 S1[B22,B31]: delta[B22,B31,0] + delta[B22,B31,1] + delta[B31,B22,0]
   + delta[B31,B22,1] = 1
 S1[B22,B32]: delta[B22,B32,0] + delta[B22,B32,1] + delta[B32,B22,0]
   + delta[B32,B22,1] = 1
 S1[B22,B33]: delta[B22,B33,0] + delta[B22,B33,1] + delta[B33,B22,0]
   + delta[B33,B22,1] = 1
 S1[B22,B34]: delta[B22,B34,0] + delta[B22,B34,1] + delta[B34,B22,0]
   + delta[B34,B22,1] = 1
 S1[B22,B35]: delta[B22,B35,0] + delta[B22,B35,1] + delta[B35,B22,0]
   + delta[B35,B22,1] = 1
 S1[B22,B36]: delta[B22,B36,0] + delta[B22,B36,1] + delta[B36,B22,0]
   + delta[B36,B22,1] = 1
 S1[B22,B37]: delta[B22,B37,0] + delta[B22,B37,1] + delta[B37,B22,0]
   + delta[B37,B22,1] = 1
 S1[B22,B38]: delta[B22,B38,0] + delta[B22,B38,1] + delta[B38,B22,0]
   + delta[B38,B22,1] = 1
 S1[B22,B39]: delta[B22,B39,0] + delta[B22,B39,1] + delta[B39,B22,0]
   + delta[B39,B22,1] = 1
 S1[B22,B40]: delta[B22,B40,0] + delta[B22,B40,1] + delta[B40,B22,0]
   + delta[B40,B22,1] = 1
 S1[B22,B41]: delta[B22,B41,0] + delta[B22,B41,1] + delta[B41,B22,0]
   + delta[B41,B22,1] = 1
 S1[B22,B42]: delta[B22,B42,0] + delta[B22,B42,1] + delta[B42,B22,0]
   + delta[B42,B22,1] = 1
 S1[B22,B43]: delta[B22,B43,0] + delta[B22,B43,1] + delta[B43,B22,0]
   + delta[B43,B22,1] = 1
 S1[B22,B44]: delta[B22,B44,0] + delta[B22,B44,1] + delta[B44,B22,0]
   + delta[B44,B22,1] = 1
 S1[B22,B45]: delta[B22,B45,0] + delta[B22,B45,1] + delta[B45,B22,0]
   + delta[B45,B22,1] = 1
 S1[B22,B46]: delta[B22,B46,0] + delta[B22,B46,1] + delta[B46,B22,0]
   + delta[B46,B22,1] = 1
 S1[B22,B47]: delta[B22,B47,0] + delta[B22,B47,1] + delta[B47,B22,0]
   + delta[B47,B22,1] = 1
 S1[B22,B48]: delta[B22,B48,0] + delta[B22,B48,1] + delta[B48,B22,0]
   + delta[B48,B22,1] = 1
 S1[B22,B49]: delta[B22,B49,0] + delta[B22,B49,1] + delta[B49,B22,0]
   + delta[B49,B22,1] = 1
 S1[B23,B24]: delta[B23,B24,0] + delta[B23,B24,1] + delta[B24,B23,0]
   + delta[B24,B23,1] = 1
 S1[B23,B25]: delta[B23,B25,0] + delta[B23,B25,1] + delta[B25,B23,0]
   + delta[B25,B23,1] = 1
 S1[B23,B26]: delta[B23,B26,0] + delta[B23,B26,1] + delta[B26,B23,0]
   + delta[B26,B23,1] = 1
 S1[B23,B27]: delta[B23,B27,0] + delta[B23,B27,1] + delta[B27,B23,0]
   + delta[B27,B23,1] = 1
 S1[B23,B28]: delta[B23,B28,0] + delta[B23,B28,1] + delta[B28,B23,0]
   + delta[B28,B23,1] = 1
 S1[B23,B29]: delta[B23,B29,0] + delta[B23,B29,1] + delta[B29,B23,0]
   + delta[B29,B23,1] = 1
 S1[B23,B30]: delta[B23,B30,0] + delta[B23,B30,1] + delta[B30,B23,0]
   + delta[B30,B23,1] = 1
 S1[B23,B31]: delta[B23,B31,0] + delta[B23,B31,1] + delta[B31,B23,0]
   + delta[B31,B23,1] = 1
 S1[B23,B32]: delta[B23,B32,0] + delta[B23,B32,1] + delta[B32,B23,0]
   + delta[B32,B23,1] = 1
 S1[B23,B33]: delta[B23,B33,0] + delta[B23,B33,1] + delta[B33,B23,0]
   + delta[B33,B23,1] = 1
 S1[B23,B34]: delta[B23,B34,0] + delta[B23,B34,1] + delta[B34,B23,0]
   + delta[B34,B23,1] = 1
 S1[B23,B35]: delta[B23,B35,0] + delta[B23,B35,1] + delta[B35,B23,0]
   + delta[B35,B23,1] = 1
 S1[B23,B36]: delta[B23,B36,0] + delta[B23,B36,1] + delta[B36,B23,0]
   + delta[B36,B23,1] = 1
 S1[B23,B37]: delta[B23,B37,0] + delta[B23,B37,1] + delta[B37,B23,0]
   + delta[B37,B23,1] = 1
 S1[B23,B38]: delta[B23,B38,0] + delta[B23,B38,1] + delta[B38,B23,0]
   + delta[B38,B23,1] = 1
 S1[B23,B39]: delta[B23,B39,0] + delta[B23,B39,1] + delta[B39,B23,0]
   + delta[B39,B23,1] = 1
 S1[B23,B40]: delta[B23,B40,0] + delta[B23,B40,1] + delta[B40,B23,0]
   + delta[B40,B23,1] = 1
 S1[B23,B41]: delta[B23,B41,0] + delta[B23,B41,1] + delta[B41,B23,0]
   + delta[B41,B23,1] = 1
 S1[B23,B42]: delta[B23,B42,0] + delta[B23,B42,1] + delta[B42,B23,0]
   + delta[B42,B23,1] = 1
 S1[B23,B43]: delta[B23,B43,0] + delta[B23,B43,1] + delta[B43,B23,0]
   + delta[B43,B23,1] = 1
 S1[B23,B44]: delta[B23,B44,0] + delta[B23,B44,1] + delta[B44,B23,0]
   + delta[B44,B23,1] = 1
 S1[B23,B45]: delta[B23,B45,0] + delta[B23,B45,1] + delta[B45,B23,0]
   + delta[B45,B23,1] = 1
 S1[B23,B46]: delta[B23,B46,0] + delta[B23,B46,1] + delta[B46,B23,0]
   + delta[B46,B23,1] = 1
 S1[B23,B47]: delta[B23,B47,0] + delta[B23,B47,1] + delta[B47,B23,0]
   + delta[B47,B23,1] = 1
 S1[B23,B48]: delta[B23,B48,0] + delta[B23,B48,1] + delta[B48,B23,0]
   + delta[B48,B23,1] = 1
 S1[B23,B49]: delta[B23,B49,0] + delta[B23,B49,1] + delta[B49,B23,0]
   + delta[B49,B23,1] = 1
 S1[B24,B25]: delta[B24,B25,0] + delta[B24,B25,1] + delta[B25,B24,0]
   + delta[B25,B24,1] = 1
 S1[B24,B26]: delta[B24,B26,0] + delta[B24,B26,1] + delta[B26,B24,0]
   + delta[B26,B24,1] = 1
 S1[B24,B27]: delta[B24,B27,0] + delta[B24,B27,1] + delta[B27,B24,0]
   + delta[B27,B24,1] = 1
 S1[B24,B28]: delta[B24,B28,0] + delta[B24,B28,1] + delta[B28,B24,0]
   + delta[B28,B24,1] = 1
 S1[B24,B29]: delta[B24,B29,0] + delta[B24,B29,1] + delta[B29,B24,0]
   + delta[B29,B24,1] = 1
 S1[B24,B30]: delta[B24,B30,0] + delta[B24,B30,1] + delta[B30,B24,0]
   + delta[B30,B24,1] = 1
 S1[B24,B31]: delta[B24,B31,0] + delta[B24,B31,1] + delta[B31,B24,0]
   + delta[B31,B24,1] = 1
 S1[B24,B32]: delta[B24,B32,0] + delta[B24,B32,1] + delta[B32,B24,0]
   + delta[B32,B24,1] = 1
 S1[B24,B33]: delta[B24,B33,0] + delta[B24,B33,1] + delta[B33,B24,0]
   + delta[B33,B24,1] = 1
 S1[B24,B34]: delta[B24,B34,0] + delta[B24,B34,1] + delta[B34,B24,0]
   + delta[B34,B24,1] = 1
 S1[B24,B35]: delta[B24,B35,0] + delta[B24,B35,1] + delta[B35,B24,0]
   + delta[B35,B24,1] = 1
 S1[B24,B36]: delta[B24,B36,0] + delta[B24,B36,1] + delta[B36,B24,0]
   + delta[B36,B24,1] = 1
 S1[B24,B37]: delta[B24,B37,0] + delta[B24,B37,1] + delta[B37,B24,0]
   + delta[B37,B24,1] = 1
 S1[B24,B38]: delta[B24,B38,0] + delta[B24,B38,1] + delta[B38,B24,0]
   + delta[B38,B24,1] = 1
 S1[B24,B39]: delta[B24,B39,0] + delta[B24,B39,1] + delta[B39,B24,0]
   + delta[B39,B24,1] = 1
 S1[B24,B40]: delta[B24,B40,0] + delta[B24,B40,1] + delta[B40,B24,0]
   + delta[B40,B24,1] = 1
 S1[B24,B41]: delta[B24,B41,0] + delta[B24,B41,1] + delta[B41,B24,0]
   + delta[B41,B24,1] = 1
 S1[B24,B42]: delta[B24,B42,0] + delta[B24,B42,1] + delta[B42,B24,0]
   + delta[B42,B24,1] = 1
 S1[B24,B43]: delta[B24,B43,0] + delta[B24,B43,1] + delta[B43,B24,0]
   + delta[B43,B24,1] = 1
 S1[B24,B44]: delta[B24,B44,0] + delta[B24,B44,1] + delta[B44,B24,0]
   + delta[B44,B24,1] = 1
 S1[B24,B45]: delta[B24,B45,0] + delta[B24,B45,1] + delta[B45,B24,0]
   + delta[B45,B24,1] = 1
 S1[B24,B46]: delta[B24,B46,0] + delta[B24,B46,1] + delta[B46,B24,0]
   + delta[B46,B24,1] = 1
 S1[B24,B47]: delta[B24,B47,0] + delta[B24,B47,1] + delta[B47,B24,0]
   + delta[B47,B24,1] = 1
 S1[B24,B48]: delta[B24,B48,0] + delta[B24,B48,1] + delta[B48,B24,0]
   + delta[B48,B24,1] = 1
 S1[B24,B49]: delta[B24,B49,0] + delta[B24,B49,1] + delta[B49,B24,0]
   + delta[B49,B24,1] = 1
 S1[B25,B26]: delta[B25,B26,0] + delta[B25,B26,1] + delta[B26,B25,0]
   + delta[B26,B25,1] = 1
 S1[B25,B27]: delta[B25,B27,0] + delta[B25,B27,1] + delta[B27,B25,0]
   + delta[B27,B25,1] = 1
 S1[B25,B28]: delta[B25,B28,0] + delta[B25,B28,1] + delta[B28,B25,0]
   + delta[B28,B25,1] = 1
 S1[B25,B29]: delta[B25,B29,0] + delta[B25,B29,1] + delta[B29,B25,0]
   + delta[B29,B25,1] = 1
 S1[B25,B30]: delta[B25,B30,0] + delta[B25,B30,1] + delta[B30,B25,0]
   + delta[B30,B25,1] = 1
 S1[B25,B31]: delta[B25,B31,0] + delta[B25,B31,1] + delta[B31,B25,0]
   + delta[B31,B25,1] = 1
 S1[B25,B32]: delta[B25,B32,0] + delta[B25,B32,1] + delta[B32,B25,0]
   + delta[B32,B25,1] = 1
 S1[B25,B33]: delta[B25,B33,0] + delta[B25,B33,1] + delta[B33,B25,0]
   + delta[B33,B25,1] = 1
 S1[B25,B34]: delta[B25,B34,0] + delta[B25,B34,1] + delta[B34,B25,0]
   + delta[B34,B25,1] = 1
 S1[B25,B35]: delta[B25,B35,0] + delta[B25,B35,1] + delta[B35,B25,0]
   + delta[B35,B25,1] = 1
 S1[B25,B36]: delta[B25,B36,0] + delta[B25,B36,1] + delta[B36,B25,0]
   + delta[B36,B25,1] = 1
 S1[B25,B37]: delta[B25,B37,0] + delta[B25,B37,1] + delta[B37,B25,0]
   + delta[B37,B25,1] = 1
 S1[B25,B38]: delta[B25,B38,0] + delta[B25,B38,1] + delta[B38,B25,0]
   + delta[B38,B25,1] = 1
 S1[B25,B39]: delta[B25,B39,0] + delta[B25,B39,1] + delta[B39,B25,0]
   + delta[B39,B25,1] = 1
 S1[B25,B40]: delta[B25,B40,0] + delta[B25,B40,1] + delta[B40,B25,0]
   + delta[B40,B25,1] = 1
 S1[B25,B41]: delta[B25,B41,0] + delta[B25,B41,1] + delta[B41,B25,0]
   + delta[B41,B25,1] = 1
 S1[B25,B42]: delta[B25,B42,0] + delta[B25,B42,1] + delta[B42,B25,0]
   + delta[B42,B25,1] = 1
 S1[B25,B43]: delta[B25,B43,0] + delta[B25,B43,1] + delta[B43,B25,0]
   + delta[B43,B25,1] = 1
 S1[B25,B44]: delta[B25,B44,0] + delta[B25,B44,1] + delta[B44,B25,0]
   + delta[B44,B25,1] = 1
 S1[B25,B45]: delta[B25,B45,0] + delta[B25,B45,1] + delta[B45,B25,0]
   + delta[B45,B25,1] = 1
 S1[B25,B46]: delta[B25,B46,0] + delta[B25,B46,1] + delta[B46,B25,0]
   + delta[B46,B25,1] = 1
 S1[B25,B47]: delta[B25,B47,0] + delta[B25,B47,1] + delta[B47,B25,0]
   + delta[B47,B25,1] = 1
 S1[B25,B48]: delta[B25,B48,0] + delta[B25,B48,1] + delta[B48,B25,0]
   + delta[B48,B25,1] = 1
 S1[B25,B49]: delta[B25,B49,0] + delta[B25,B49,1] + delta[B49,B25,0]
   + delta[B49,B25,1] = 1
 S1[B26,B27]: delta[B26,B27,0] + delta[B26,B27,1] + delta[B27,B26,0]
   + delta[B27,B26,1] = 1
 S1[B26,B28]: delta[B26,B28,0] + delta[B26,B28,1] + delta[B28,B26,0]
   + delta[B28,B26,1] = 1
 S1[B26,B29]: delta[B26,B29,0] + delta[B26,B29,1] + delta[B29,B26,0]
   + delta[B29,B26,1] = 1
 S1[B26,B30]: delta[B26,B30,0] + delta[B26,B30,1] + delta[B30,B26,0]
   + delta[B30,B26,1] = 1
 S1[B26,B31]: delta[B26,B31,0] + delta[B26,B31,1] + delta[B31,B26,0]
   + delta[B31,B26,1] = 1
 S1[B26,B32]: delta[B26,B32,0] + delta[B26,B32,1] + delta[B32,B26,0]
   + delta[B32,B26,1] = 1
 S1[B26,B33]: delta[B26,B33,0] + delta[B26,B33,1] + delta[B33,B26,0]
   + delta[B33,B26,1] = 1
 S1[B26,B34]: delta[B26,B34,0] + delta[B26,B34,1] + delta[B34,B26,0]
   + delta[B34,B26,1] = 1
 S1[B26,B35]: delta[B26,B35,0] + delta[B26,B35,1] + delta[B35,B26,0]
   + delta[B35,B26,1] = 1
 S1[B26,B36]: delta[B26,B36,0] + delta[B26,B36,1] + delta[B36,B26,0]
   + delta[B36,B26,1] = 1
 S1[B26,B37]: delta[B26,B37,0] + delta[B26,B37,1] + delta[B37,B26,0]
   + delta[B37,B26,1] = 1
 S1[B26,B38]: delta[B26,B38,0] + delta[B26,B38,1] + delta[B38,B26,0]
   + delta[B38,B26,1] = 1
 S1[B26,B39]: delta[B26,B39,0] + delta[B26,B39,1] + delta[B39,B26,0]
   + delta[B39,B26,1] = 1
 S1[B26,B40]: delta[B26,B40,0] + delta[B26,B40,1] + delta[B40,B26,0]
   + delta[B40,B26,1] = 1
 S1[B26,B41]: delta[B26,B41,0] + delta[B26,B41,1] + delta[B41,B26,0]
   + delta[B41,B26,1] = 1
 S1[B26,B42]: delta[B26,B42,0] + delta[B26,B42,1] + delta[B42,B26,0]
   + delta[B42,B26,1] = 1
 S1[B26,B43]: delta[B26,B43,0] + delta[B26,B43,1] + delta[B43,B26,0]
   + delta[B43,B26,1] = 1
 S1[B26,B44]: delta[B26,B44,0] + delta[B26,B44,1] + delta[B44,B26,0]
   + delta[B44,B26,1] = 1
 S1[B26,B45]: delta[B26,B45,0] + delta[B26,B45,1] + delta[B45,B26,0]
   + delta[B45,B26,1] = 1
 S1[B26,B46]: delta[B26,B46,0] + delta[B26,B46,1] + delta[B46,B26,0]
   + delta[B46,B26,1] = 1
 S1[B26,B47]: delta[B26,B47,0] + delta[B26,B47,1] + delta[B47,B26,0]
   + delta[B47,B26,1] = 1
 S1[B26,B48]: delta[B26,B48,0] + delta[B26,B48,1] + delta[B48,B26,0]
   + delta[B48,B26,1] = 1
 S1[B26,B49]: delta[B26,B49,0] + delta[B26,B49,1] + delta[B49,B26,0]
   + delta[B49,B26,1] = 1
 S1[B27,B28]: delta[B27,B28,0] + delta[B27,B28,1] + delta[B28,B27,0]
   + delta[B28,B27,1] = 1
 S1[B27,B29]: delta[B27,B29,0] + delta[B27,B29,1] + delta[B29,B27,0]
   + delta[B29,B27,1] = 1
 S1[B27,B30]: delta[B27,B30,0] + delta[B27,B30,1] + delta[B30,B27,0]
   + delta[B30,B27,1] = 1
 S1[B27,B31]: delta[B27,B31,0] + delta[B27,B31,1] + delta[B31,B27,0]
   + delta[B31,B27,1] = 1
 S1[B27,B32]: delta[B27,B32,0] + delta[B27,B32,1] + delta[B32,B27,0]
   + delta[B32,B27,1] = 1
 S1[B27,B33]: delta[B27,B33,0] + delta[B27,B33,1] + delta[B33,B27,0]
   + delta[B33,B27,1] = 1
 S1[B27,B34]: delta[B27,B34,0] + delta[B27,B34,1] + delta[B34,B27,0]
   + delta[B34,B27,1] = 1
 S1[B27,B35]: delta[B27,B35,0] + delta[B27,B35,1] + delta[B35,B27,0]
   + delta[B35,B27,1] = 1
 S1[B27,B36]: delta[B27,B36,0] + delta[B27,B36,1] + delta[B36,B27,0]
   + delta[B36,B27,1] = 1
 S1[B27,B37]: delta[B27,B37,0] + delta[B27,B37,1] + delta[B37,B27,0]
   + delta[B37,B27,1] = 1
 S1[B27,B38]: delta[B27,B38,0] + delta[B27,B38,1] + delta[B38,B27,0]
   + delta[B38,B27,1] = 1
 S1[B27,B39]: delta[B27,B39,0] + delta[B27,B39,1] + delta[B39,B27,0]
   + delta[B39,B27,1] = 1
 S1[B27,B40]: delta[B27,B40,0] + delta[B27,B40,1] + delta[B40,B27,0]
   + delta[B40,B27,1] = 1
 S1[B27,B41]: delta[B27,B41,0] + delta[B27,B41,1] + delta[B41,B27,0]
   + delta[B41,B27,1] = 1
 S1[B27,B42]: delta[B27,B42,0] + delta[B27,B42,1] + delta[B42,B27,0]
   + delta[B42,B27,1] = 1
 S1[B27,B43]: delta[B27,B43,0] + delta[B27,B43,1] + delta[B43,B27,0]
   + delta[B43,B27,1] = 1
 S1[B27,B44]: delta[B27,B44,0] + delta[B27,B44,1] + delta[B44,B27,0]
   + delta[B44,B27,1] = 1
 S1[B27,B45]: delta[B27,B45,0] + delta[B27,B45,1] + delta[B45,B27,0]
   + delta[B45,B27,1] = 1
 S1[B27,B46]: delta[B27,B46,0] + delta[B27,B46,1] + delta[B46,B27,0]
   + delta[B46,B27,1] = 1
 S1[B27,B47]: delta[B27,B47,0] + delta[B27,B47,1] + delta[B47,B27,0]
   + delta[B47,B27,1] = 1
 S1[B27,B48]: delta[B27,B48,0] + delta[B27,B48,1] + delta[B48,B27,0]
   + delta[B48,B27,1] = 1
 S1[B27,B49]: delta[B27,B49,0] + delta[B27,B49,1] + delta[B49,B27,0]
   + delta[B49,B27,1] = 1
 S1[B28,B29]: delta[B28,B29,0] + delta[B28,B29,1] + delta[B29,B28,0]
   + delta[B29,B28,1] = 1
 S1[B28,B30]: delta[B28,B30,0] + delta[B28,B30,1] + delta[B30,B28,0]
   + delta[B30,B28,1] = 1
 S1[B28,B31]: delta[B28,B31,0] + delta[B28,B31,1] + delta[B31,B28,0]
   + delta[B31,B28,1] = 1
 S1[B28,B32]: delta[B28,B32,0] + delta[B28,B32,1] + delta[B32,B28,0]
   + delta[B32,B28,1] = 1
 S1[B28,B33]: delta[B28,B33,0] + delta[B28,B33,1] + delta[B33,B28,0]
   + delta[B33,B28,1] = 1
 S1[B28,B34]: delta[B28,B34,0] + delta[B28,B34,1] + delta[B34,B28,0]
   + delta[B34,B28,1] = 1
 S1[B28,B35]: delta[B28,B35,0] + delta[B28,B35,1] + delta[B35,B28,0]
   + delta[B35,B28,1] = 1
 S1[B28,B36]: delta[B28,B36,0] + delta[B28,B36,1] + delta[B36,B28,0]
   + delta[B36,B28,1] = 1
 S1[B28,B37]: delta[B28,B37,0] + delta[B28,B37,1] + delta[B37,B28,0]
   + delta[B37,B28,1] = 1
 S1[B28,B38]: delta[B28,B38,0] + delta[B28,B38,1] + delta[B38,B28,0]
   + delta[B38,B28,1] = 1
 S1[B28,B39]: delta[B28,B39,0] + delta[B28,B39,1] + delta[B39,B28,0]
   + delta[B39,B28,1] = 1
 S1[B28,B40]: delta[B28,B40,0] + delta[B28,B40,1] + delta[B40,B28,0]
   + delta[B40,B28,1] = 1
 S1[B28,B41]: delta[B28,B41,0] + delta[B28,B41,1] + delta[B41,B28,0]
   + delta[B41,B28,1] = 1
 S1[B28,B42]: delta[B28,B42,0] + delta[B28,B42,1] + delta[B42,B28,0]
   + delta[B42,B28,1] = 1
 S1[B28,B43]: delta[B28,B43,0] + delta[B28,B43,1] + delta[B43,B28,0]
   + delta[B43,B28,1] = 1
 S1[B28,B44]: delta[B28,B44,0] + delta[B28,B44,1] + delta[B44,B28,0]
   + delta[B44,B28,1] = 1
 S1[B28,B45]: delta[B28,B45,0] + delta[B28,B45,1] + delta[B45,B28,0]
   + delta[B45,B28,1] = 1
 S1[B28,B46]: delta[B28,B46,0] + delta[B28,B46,1] + delta[B46,B28,0]
   + delta[B46,B28,1] = 1
 S1[B28,B47]: delta[B28,B47,0] + delta[B28,B47,1] + delta[B47,B28,0]
   + delta[B47,B28,1] = 1
 S1[B28,B48]: delta[B28,B48,0] + delta[B28,B48,1] + delta[B48,B28,0]
   + delta[B48,B28,1] = 1
 S1[B28,B49]: delta[B28,B49,0] + delta[B28,B49,1] + delta[B49,B28,0]
   + delta[B49,B28,1] = 1
 S1[B29,B30]: delta[B29,B30,0] + delta[B29,B30,1] + delta[B30,B29,0]
   + delta[B30,B29,1] = 1
 S1[B29,B31]: delta[B29,B31,0] + delta[B29,B31,1] + delta[B31,B29,0]
   + delta[B31,B29,1] = 1
 S1[B29,B32]: delta[B29,B32,0] + delta[B29,B32,1] + delta[B32,B29,0]
   + delta[B32,B29,1] = 1
 S1[B29,B33]: delta[B29,B33,0] + delta[B29,B33,1] + delta[B33,B29,0]
   + delta[B33,B29,1] = 1
 S1[B29,B34]: delta[B29,B34,0] + delta[B29,B34,1] + delta[B34,B29,0]
   + delta[B34,B29,1] = 1
 S1[B29,B35]: delta[B29,B35,0] + delta[B29,B35,1] + delta[B35,B29,0]
   + delta[B35,B29,1] = 1
 S1[B29,B36]: delta[B29,B36,0] + delta[B29,B36,1] + delta[B36,B29,0]
   + delta[B36,B29,1] = 1
 S1[B29,B37]: delta[B29,B37,0] + delta[B29,B37,1] + delta[B37,B29,0]
   + delta[B37,B29,1] = 1
 S1[B29,B38]: delta[B29,B38,0] + delta[B29,B38,1] + delta[B38,B29,0]
   + delta[B38,B29,1] = 1
 S1[B29,B39]: delta[B29,B39,0] + delta[B29,B39,1] + delta[B39,B29,0]
   + delta[B39,B29,1] = 1
 S1[B29,B40]: delta[B29,B40,0] + delta[B29,B40,1] + delta[B40,B29,0]
   + delta[B40,B29,1] = 1
 S1[B29,B41]: delta[B29,B41,0] + delta[B29,B41,1] + delta[B41,B29,0]
   + delta[B41,B29,1] = 1
 S1[B29,B42]: delta[B29,B42,0] + delta[B29,B42,1] + delta[B42,B29,0]
   + delta[B42,B29,1] = 1
 S1[B29,B43]: delta[B29,B43,0] + delta[B29,B43,1] + delta[B43,B29,0]
   + delta[B43,B29,1] = 1
 S1[B29,B44]: delta[B29,B44,0] + delta[B29,B44,1] + delta[B44,B29,0]
   + delta[B44,B29,1] = 1
 S1[B29,B45]: delta[B29,B45,0] + delta[B29,B45,1] + delta[B45,B29,0]
   + delta[B45,B29,1] = 1
 S1[B29,B46]: delta[B29,B46,0] + delta[B29,B46,1] + delta[B46,B29,0]
   + delta[B46,B29,1] = 1
 S1[B29,B47]: delta[B29,B47,0] + delta[B29,B47,1] + delta[B47,B29,0]
   + delta[B47,B29,1] = 1
 S1[B29,B48]: delta[B29,B48,0] + delta[B29,B48,1] + delta[B48,B29,0]
   + delta[B48,B29,1] = 1
 S1[B29,B49]: delta[B29,B49,0] + delta[B29,B49,1] + delta[B49,B29,0]
   + delta[B49,B29,1] = 1
 S1[B30,B31]: delta[B30,B31,0] + delta[B30,B31,1] + delta[B31,B30,0]
   + delta[B31,B30,1] = 1
 S1[B30,B32]: delta[B30,B32,0] + delta[B30,B32,1] + delta[B32,B30,0]
   + delta[B32,B30,1] = 1
 S1[B30,B33]: delta[B30,B33,0] + delta[B30,B33,1] + delta[B33,B30,0]
   + delta[B33,B30,1] = 1
 S1[B30,B34]: delta[B30,B34,0] + delta[B30,B34,1] + delta[B34,B30,0]
   + delta[B34,B30,1] = 1
 S1[B30,B35]: delta[B30,B35,0] + delta[B30,B35,1] + delta[B35,B30,0]
   + delta[B35,B30,1] = 1
 S1[B30,B36]: delta[B30,B36,0] + delta[B30,B36,1] + delta[B36,B30,0]
   + delta[B36,B30,1] = 1
 S1[B30,B37]: delta[B30,B37,0] + delta[B30,B37,1] + delta[B37,B30,0]
   + delta[B37,B30,1] = 1
 S1[B30,B38]: delta[B30,B38,0] + delta[B30,B38,1] + delta[B38,B30,0]
   + delta[B38,B30,1] = 1
 S1[B30,B39]: delta[B30,B39,0] + delta[B30,B39,1] + delta[B39,B30,0]
   + delta[B39,B30,1] = 1
 S1[B30,B40]: delta[B30,B40,0] + delta[B30,B40,1] + delta[B40,B30,0]
   + delta[B40,B30,1] = 1
 S1[B30,B41]: delta[B30,B41,0] + delta[B30,B41,1] + delta[B41,B30,0]
   + delta[B41,B30,1] = 1
 S1[B30,B42]: delta[B30,B42,0] + delta[B30,B42,1] + delta[B42,B30,0]
   + delta[B42,B30,1] = 1
 S1[B30,B43]: delta[B30,B43,0] + delta[B30,B43,1] + delta[B43,B30,0]
   + delta[B43,B30,1] = 1
 S1[B30,B44]: delta[B30,B44,0] + delta[B30,B44,1] + delta[B44,B30,0]
   + delta[B44,B30,1] = 1
 S1[B30,B45]: delta[B30,B45,0] + delta[B30,B45,1] + delta[B45,B30,0]
   + delta[B45,B30,1] = 1
 S1[B30,B46]: delta[B30,B46,0] + delta[B30,B46,1] + delta[B46,B30,0]
   + delta[B46,B30,1] = 1
 S1[B30,B47]: delta[B30,B47,0] + delta[B30,B47,1] + delta[B47,B30,0]
   + delta[B47,B30,1] = 1
 S1[B30,B48]: delta[B30,B48,0] + delta[B30,B48,1] + delta[B48,B30,0]
   + delta[B48,B30,1] = 1
 S1[B30,B49]: delta[B30,B49,0] + delta[B30,B49,1] + delta[B49,B30,0]
   + delta[B49,B30,1] = 1
 S1[B31,B32]: delta[B31,B32,0] + delta[B31,B32,1] + delta[B32,B31,0]
   + delta[B32,B31,1] = 1
 S1[B31,B33]: delta[B31,B33,0] + delta[B31,B33,1] + delta[B33,B31,0]
   + delta[B33,B31,1] = 1
 S1[B31,B34]: delta[B31,B34,0] + delta[B31,B34,1] + delta[B34,B31,0]
   + delta[B34,B31,1] = 1
 S1[B31,B35]: delta[B31,B35,0] + delta[B31,B35,1] + delta[B35,B31,0]
   + delta[B35,B31,1] = 1
 S1[B31,B36]: delta[B31,B36,0] + delta[B31,B36,1] + delta[B36,B31,0]
   + delta[B36,B31,1] = 1
 S1[B31,B37]: delta[B31,B37,0] + delta[B31,B37,1] + delta[B37,B31,0]
   + delta[B37,B31,1] = 1
 S1[B31,B38]: delta[B31,B38,0] + delta[B31,B38,1] + delta[B38,B31,0]
   + delta[B38,B31,1] = 1
 S1[B31,B39]: delta[B31,B39,0] + delta[B31,B39,1] + delta[B39,B31,0]
   + delta[B39,B31,1] = 1
 S1[B31,B40]: delta[B31,B40,0] + delta[B31,B40,1] + delta[B40,B31,0]
   + delta[B40,B31,1] = 1
 S1[B31,B41]: delta[B31,B41,0] + delta[B31,B41,1] + delta[B41,B31,0]
   + delta[B41,B31,1] = 1
 S1[B31,B42]: delta[B31,B42,0] + delta[B31,B42,1] + delta[B42,B31,0]
   + delta[B42,B31,1] = 1
 S1[B31,B43]: delta[B31,B43,0] + delta[B31,B43,1] + delta[B43,B31,0]
   + delta[B43,B31,1] = 1
 S1[B31,B44]: delta[B31,B44,0] + delta[B31,B44,1] + delta[B44,B31,0]
   + delta[B44,B31,1] = 1
 S1[B31,B45]: delta[B31,B45,0] + delta[B31,B45,1] + delta[B45,B31,0]
   + delta[B45,B31,1] = 1
 S1[B31,B46]: delta[B31,B46,0] + delta[B31,B46,1] + delta[B46,B31,0]
   + delta[B46,B31,1] = 1
 S1[B31,B47]: delta[B31,B47,0] + delta[B31,B47,1] + delta[B47,B31,0]
   + delta[B47,B31,1] = 1
 S1[B31,B48]: delta[B31,B48,0] + delta[B31,B48,1] + delta[B48,B31,0]
   + delta[B48,B31,1] = 1
 S1[B31,B49]: delta[B31,B49,0] + delta[B31,B49,1] + delta[B49,B31,0]
   + delta[B49,B31,1] = 1
 S1[B32,B33]: delta[B32,B33,0] + delta[B32,B33,1] + delta[B33,B32,0]
   + delta[B33,B32,1] = 1
 S1[B32,B34]: delta[B32,B34,0] + delta[B32,B34,1] + delta[B34,B32,0]
   + delta[B34,B32,1] = 1
 S1[B32,B35]: delta[B32,B35,0] + delta[B32,B35,1] + delta[B35,B32,0]
   + delta[B35,B32,1] = 1
 S1[B32,B36]: delta[B32,B36,0] + delta[B32,B36,1] + delta[B36,B32,0]
   + delta[B36,B32,1] = 1
 S1[B32,B37]: delta[B32,B37,0] + delta[B32,B37,1] + delta[B37,B32,0]
   + delta[B37,B32,1] = 1
 S1[B32,B38]: delta[B32,B38,0] + delta[B32,B38,1] + delta[B38,B32,0]
   + delta[B38,B32,1] = 1
 S1[B32,B39]: delta[B32,B39,0] + delta[B32,B39,1] + delta[B39,B32,0]
   + delta[B39,B32,1] = 1
 S1[B32,B40]: delta[B32,B40,0] + delta[B32,B40,1] + delta[B40,B32,0]
   + delta[B40,B32,1] = 1
 S1[B32,B41]: delta[B32,B41,0] + delta[B32,B41,1] + delta[B41,B32,0]
   + delta[B41,B32,1] = 1
 S1[B32,B42]: delta[B32,B42,0] + delta[B32,B42,1] + delta[B42,B32,0]
   + delta[B42,B32,1] = 1
 S1[B32,B43]: delta[B32,B43,0] + delta[B32,B43,1] + delta[B43,B32,0]
   + delta[B43,B32,1] = 1
 S1[B32,B44]: delta[B32,B44,0] + delta[B32,B44,1] + delta[B44,B32,0]
   + delta[B44,B32,1] = 1
 S1[B32,B45]: delta[B32,B45,0] + delta[B32,B45,1] + delta[B45,B32,0]
   + delta[B45,B32,1] = 1
 S1[B32,B46]: delta[B32,B46,0] + delta[B32,B46,1] + delta[B46,B32,0]
   + delta[B46,B32,1] = 1
 S1[B32,B47]: delta[B32,B47,0] + delta[B32,B47,1] + delta[B47,B32,0]
   + delta[B47,B32,1] = 1
 S1[B32,B48]: delta[B32,B48,0] + delta[B32,B48,1] + delta[B48,B32,0]
   + delta[B48,B32,1] = 1
 S1[B32,B49]: delta[B32,B49,0] + delta[B32,B49,1] + delta[B49,B32,0]
   + delta[B49,B32,1] = 1
 S1[B33,B34]: delta[B33,B34,0] + delta[B33,B34,1] + delta[B34,B33,0]
   + delta[B34,B33,1] = 1
 S1[B33,B35]: delta[B33,B35,0] + delta[B33,B35,1] + delta[B35,B33,0]
   + delta[B35,B33,1] = 1
 S1[B33,B36]: delta[B33,B36,0] + delta[B33,B36,1] + delta[B36,B33,0]
   + delta[B36,B33,1] = 1
 S1[B33,B37]: delta[B33,B37,0] + delta[B33,B37,1] + delta[B37,B33,0]
   + delta[B37,B33,1] = 1
 S1[B33,B38]: delta[B33,B38,0] + delta[B33,B38,1] + delta[B38,B33,0]
   + delta[B38,B33,1] = 1
 S1[B33,B39]: delta[B33,B39,0] + delta[B33,B39,1] + delta[B39,B33,0]
   + delta[B39,B33,1] = 1
 S1[B33,B40]: delta[B33,B40,0] + delta[B33,B40,1] + delta[B40,B33,0]
   + delta[B40,B33,1] = 1
 S1[B33,B41]: delta[B33,B41,0] + delta[B33,B41,1] + delta[B41,B33,0]
   + delta[B41,B33,1] = 1
 S1[B33,B42]: delta[B33,B42,0] + delta[B33,B42,1] + delta[B42,B33,0]
   + delta[B42,B33,1] = 1
 S1[B33,B43]: delta[B33,B43,0] + delta[B33,B43,1] + delta[B43,B33,0]
   + delta[B43,B33,1] = 1
 S1[B33,B44]: delta[B33,B44,0] + delta[B33,B44,1] + delta[B44,B33,0]
   + delta[B44,B33,1] = 1
 S1[B33,B45]: delta[B33,B45,0] + delta[B33,B45,1] + delta[B45,B33,0]
   + delta[B45,B33,1] = 1
 S1[B33,B46]: delta[B33,B46,0] + delta[B33,B46,1] + delta[B46,B33,0]
   + delta[B46,B33,1] = 1
 S1[B33,B47]: delta[B33,B47,0] + delta[B33,B47,1] + delta[B47,B33,0]
   + delta[B47,B33,1] = 1
 S1[B33,B48]: delta[B33,B48,0] + delta[B33,B48,1] + delta[B48,B33,0]
   + delta[B48,B33,1] = 1
 S1[B33,B49]: delta[B33,B49,0] + delta[B33,B49,1] + delta[B49,B33,0]
   + delta[B49,B33,1] = 1
 S1[B34,B35]: delta[B34,B35,0] + delta[B34,B35,1] + delta[B35,B34,0]
   + delta[B35,B34,1] = 1
 S1[B34,B36]: delta[B34,B36,0] + delta[B34,B36,1] + delta[B36,B34,0]
   + delta[B36,B34,1] = 1
 S1[B34,B37]: delta[B34,B37,0] + delta[B34,B37,1] + delta[B37,B34,0]
   + delta[B37,B34,1] = 1
 S1[B34,B38]: delta[B34,B38,0] + delta[B34,B38,1] + delta[B38,B34,0]
   + delta[B38,B34,1] = 1
 S1[B34,B39]: delta[B34,B39,0] + delta[B34,B39,1] + delta[B39,B34,0]
   + delta[B39,B34,1] = 1
 S1[B34,B40]: delta[B34,B40,0] + delta[B34,B40,1] + delta[B40,B34,0]
   + delta[B40,B34,1] = 1
 S1[B34,B41]: delta[B34,B41,0] + delta[B34,B41,1] + delta[B41,B34,0]
   + delta[B41,B34,1] = 1
 S1[B34,B42]: delta[B34,B42,0] + delta[B34,B42,1] + delta[B42,B34,0]
   + delta[B42,B34,1] = 1
 S1[B34,B43]: delta[B34,B43,0] + delta[B34,B43,1] + delta[B43,B34,0]
   + delta[B43,B34,1] = 1
 S1[B34,B44]: delta[B34,B44,0] + delta[B34,B44,1] + delta[B44,B34,0]
   + delta[B44,B34,1] = 1
 S1[B34,B45]: delta[B34,B45,0] + delta[B34,B45,1] + delta[B45,B34,0]
   + delta[B45,B34,1] = 1
 S1[B34,B46]: delta[B34,B46,0] + delta[B34,B46,1] + delta[B46,B34,0]
   + delta[B46,B34,1] = 1
 S1[B34,B47]: delta[B34,B47,0] + delta[B34,B47,1] + delta[B47,B34,0]
   + delta[B47,B34,1] = 1
 S1[B34,B48]: delta[B34,B48,0] + delta[B34,B48,1] + delta[B48,B34,0]
   + delta[B48,B34,1] = 1
 S1[B34,B49]: delta[B34,B49,0] + delta[B34,B49,1] + delta[B49,B34,0]
   + delta[B49,B34,1] = 1
 S1[B35,B36]: delta[B35,B36,0] + delta[B35,B36,1] + delta[B36,B35,0]
   + delta[B36,B35,1] = 1
 S1[B35,B37]: delta[B35,B37,0] + delta[B35,B37,1] + delta[B37,B35,0]
   + delta[B37,B35,1] = 1
 S1[B35,B38]: delta[B35,B38,0] + delta[B35,B38,1] + delta[B38,B35,0]
   + delta[B38,B35,1] = 1
 S1[B35,B39]: delta[B35,B39,0] + delta[B35,B39,1] + delta[B39,B35,0]
   + delta[B39,B35,1] = 1
 S1[B35,B40]: delta[B35,B40,0] + delta[B35,B40,1] + delta[B40,B35,0]
   + delta[B40,B35,1] = 1
 S1[B35,B41]: delta[B35,B41,0] + delta[B35,B41,1] + delta[B41,B35,0]
   + delta[B41,B35,1] = 1
 S1[B35,B42]: delta[B35,B42,0] + delta[B35,B42,1] + delta[B42,B35,0]
   + delta[B42,B35,1] = 1
 S1[B35,B43]: delta[B35,B43,0] + delta[B35,B43,1] + delta[B43,B35,0]
   + delta[B43,B35,1] = 1
 S1[B35,B44]: delta[B35,B44,0] + delta[B35,B44,1] + delta[B44,B35,0]
   + delta[B44,B35,1] = 1
 S1[B35,B45]: delta[B35,B45,0] + delta[B35,B45,1] + delta[B45,B35,0]
   + delta[B45,B35,1] = 1
 S1[B35,B46]: delta[B35,B46,0] + delta[B35,B46,1] + delta[B46,B35,0]
   + delta[B46,B35,1] = 1
 S1[B35,B47]: delta[B35,B47,0] + delta[B35,B47,1] + delta[B47,B35,0]
   + delta[B47,B35,1] = 1
 S1[B35,B48]: delta[B35,B48,0] + delta[B35,B48,1] + delta[B48,B35,0]
   + delta[B48,B35,1] = 1
 S1[B35,B49]: delta[B35,B49,0] + delta[B35,B49,1] + delta[B49,B35,0]
   + delta[B49,B35,1] = 1
 S1[B36,B37]: delta[B36,B37,0] + delta[B36,B37,1] + delta[B37,B36,0]
   + delta[B37,B36,1] = 1
 S1[B36,B38]: delta[B36,B38,0] + delta[B36,B38,1] + delta[B38,B36,0]
   + delta[B38,B36,1] = 1
 S1[B36,B39]: delta[B36,B39,0] + delta[B36,B39,1] + delta[B39,B36,0]
   + delta[B39,B36,1] = 1
 S1[B36,B40]: delta[B36,B40,0] + delta[B36,B40,1] + delta[B40,B36,0]
   + delta[B40,B36,1] = 1
 S1[B36,B41]: delta[B36,B41,0] + delta[B36,B41,1] + delta[B41,B36,0]
   + delta[B41,B36,1] = 1
 S1[B36,B42]: delta[B36,B42,0] + delta[B36,B42,1] + delta[B42,B36,0]
   + delta[B42,B36,1] = 1
 S1[B36,B43]: delta[B36,B43,0] + delta[B36,B43,1] + delta[B43,B36,0]
   + delta[B43,B36,1] = 1
 S1[B36,B44]: delta[B36,B44,0] + delta[B36,B44,1] + delta[B44,B36,0]
   + delta[B44,B36,1] = 1
 S1[B36,B45]: delta[B36,B45,0] + delta[B36,B45,1] + delta[B45,B36,0]
   + delta[B45,B36,1] = 1
 S1[B36,B46]: delta[B36,B46,0] + delta[B36,B46,1] + delta[B46,B36,0]
   + delta[B46,B36,1] = 1
 S1[B36,B47]: delta[B36,B47,0] + delta[B36,B47,1] + delta[B47,B36,0]
   + delta[B47,B36,1] = 1
 S1[B36,B48]: delta[B36,B48,0] + delta[B36,B48,1] + delta[B48,B36,0]
   + delta[B48,B36,1] = 1
 S1[B36,B49]: delta[B36,B49,0] + delta[B36,B49,1] + delta[B49,B36,0]
   + delta[B49,B36,1] = 1
 S1[B37,B38]: delta[B37,B38,0] + delta[B37,B38,1] + delta[B38,B37,0]
   + delta[B38,B37,1] = 1
 S1[B37,B39]: delta[B37,B39,0] + delta[B37,B39,1] + delta[B39,B37,0]
   + delta[B39,B37,1] = 1
 S1[B37,B40]: delta[B37,B40,0] + delta[B37,B40,1] + delta[B40,B37,0]
   + delta[B40,B37,1] = 1
 S1[B37,B41]: delta[B37,B41,0] + delta[B37,B41,1] + delta[B41,B37,0]
   + delta[B41,B37,1] = 1
 S1[B37,B42]: delta[B37,B42,0] + delta[B37,B42,1] + delta[B42,B37,0]
   + delta[B42,B37,1] = 1
 S1[B37,B43]: delta[B37,B43,0] + delta[B37,B43,1] + delta[B43,B37,0]
   + delta[B43,B37,1] = 1
 S1[B37,B44]: delta[B37,B44,0] + delta[B37,B44,1] + delta[B44,B37,0]
   + delta[B44,B37,1] = 1
 S1[B37,B45]: delta[B37,B45,0] + delta[B37,B45,1] + delta[B45,B37,0]
   + delta[B45,B37,1] = 1
 S1[B37,B46]: delta[B37,B46,0] + delta[B37,B46,1] + delta[B46,B37,0]
   + delta[B46,B37,1] = 1
 S1[B37,B47]: delta[B37,B47,0] + delta[B37,B47,1] + delta[B47,B37,0]
   + delta[B47,B37,1] = 1
 S1[B37,B48]: delta[B37,B48,0] + delta[B37,B48,1] + delta[B48,B37,0]
   + delta[B48,B37,1] = 1
 S1[B37,B49]: delta[B37,B49,0] + delta[B37,B49,1] + delta[B49,B37,0]
   + delta[B49,B37,1] = 1
 S1[B38,B39]: delta[B38,B39,0] + delta[B38,B39,1] + delta[B39,B38,0]
   + delta[B39,B38,1] = 1
 S1[B38,B40]: delta[B38,B40,0] + delta[B38,B40,1] + delta[B40,B38,0]
   + delta[B40,B38,1] = 1
 S1[B38,B41]: delta[B38,B41,0] + delta[B38,B41,1] + delta[B41,B38,0]
   + delta[B41,B38,1] = 1
 S1[B38,B42]: delta[B38,B42,0] + delta[B38,B42,1] + delta[B42,B38,0]
   + delta[B42,B38,1] = 1
 S1[B38,B43]: delta[B38,B43,0] + delta[B38,B43,1] + delta[B43,B38,0]
   + delta[B43,B38,1] = 1
 S1[B38,B44]: delta[B38,B44,0] + delta[B38,B44,1] + delta[B44,B38,0]
   + delta[B44,B38,1] = 1
 S1[B38,B45]: delta[B38,B45,0] + delta[B38,B45,1] + delta[B45,B38,0]
   + delta[B45,B38,1] = 1
 S1[B38,B46]: delta[B38,B46,0] + delta[B38,B46,1] + delta[B46,B38,0]
   + delta[B46,B38,1] = 1
 S1[B38,B47]: delta[B38,B47,0] + delta[B38,B47,1] + delta[B47,B38,0]
   + delta[B47,B38,1] = 1
 S1[B38,B48]: delta[B38,B48,0] + delta[B38,B48,1] + delta[B48,B38,0]
   + delta[B48,B38,1] = 1
 S1[B38,B49]: delta[B38,B49,0] + delta[B38,B49,1] + delta[B49,B38,0]
   + delta[B49,B38,1] = 1
 S1[B39,B40]: delta[B39,B40,0] + delta[B39,B40,1] + delta[B40,B39,0]
   + delta[B40,B39,1] = 1
 S1[B39,B41]: delta[B39,B41,0] + delta[B39,B41,1] + delta[B41,B39,0]
   + delta[B41,B39,1] = 1
 S1[B39,B42]: delta[B39,B42,0] + delta[B39,B42,1] + delta[B42,B39,0]
   + delta[B42,B39,1] = 1
 S1[B39,B43]: delta[B39,B43,0] + delta[B39,B43,1] + delta[B43,B39,0]
   + delta[B43,B39,1] = 1
 S1[B39,B44]: delta[B39,B44,0] + delta[B39,B44,1] + delta[B44,B39,0]
   + delta[B44,B39,1] = 1
 S1[B39,B45]: delta[B39,B45,0] + delta[B39,B45,1] + delta[B45,B39,0]
   + delta[B45,B39,1] = 1
 S1[B39,B46]: delta[B39,B46,0] + delta[B39,B46,1] + delta[B46,B39,0]
   + delta[B46,B39,1] = 1
 S1[B39,B47]: delta[B39,B47,0] + delta[B39,B47,1] + delta[B47,B39,0]
   + delta[B47,B39,1] = 1
 S1[B39,B48]: delta[B39,B48,0] + delta[B39,B48,1] + delta[B48,B39,0]
   + delta[B48,B39,1] = 1
 S1[B39,B49]: delta[B39,B49,0] + delta[B39,B49,1] + delta[B49,B39,0]
   + delta[B49,B39,1] = 1
 S1[B40,B41]: delta[B40,B41,0] + delta[B40,B41,1] + delta[B41,B40,0]
   + delta[B41,B40,1] = 1
 S1[B40,B42]: delta[B40,B42,0] + delta[B40,B42,1] + delta[B42,B40,0]
   + delta[B42,B40,1] = 1
 S1[B40,B43]: delta[B40,B43,0] + delta[B40,B43,1] + delta[B43,B40,0]
   + delta[B43,B40,1] = 1
 S1[B40,B44]: delta[B40,B44,0] + delta[B40,B44,1] + delta[B44,B40,0]
   + delta[B44,B40,1] = 1
 S1[B40,B45]: delta[B40,B45,0] + delta[B40,B45,1] + delta[B45,B40,0]
   + delta[B45,B40,1] = 1
 S1[B40,B46]: delta[B40,B46,0] + delta[B40,B46,1] + delta[B46,B40,0]
   + delta[B46,B40,1] = 1
 S1[B40,B47]: delta[B40,B47,0] + delta[B40,B47,1] + delta[B47,B40,0]
   + delta[B47,B40,1] = 1
 S1[B40,B48]: delta[B40,B48,0] + delta[B40,B48,1] + delta[B48,B40,0]
   + delta[B48,B40,1] = 1
 S1[B40,B49]: delta[B40,B49,0] + delta[B40,B49,1] + delta[B49,B40,0]
   + delta[B49,B40,1] = 1
 S1[B41,B42]: delta[B41,B42,0] + delta[B41,B42,1] + delta[B42,B41,0]
   + delta[B42,B41,1] = 1
 S1[B41,B43]: delta[B41,B43,0] + delta[B41,B43,1] + delta[B43,B41,0]
   + delta[B43,B41,1] = 1
 S1[B41,B44]: delta[B41,B44,0] + delta[B41,B44,1] + delta[B44,B41,0]
   + delta[B44,B41,1] = 1
 S1[B41,B45]: delta[B41,B45,0] + delta[B41,B45,1] + delta[B45,B41,0]
   + delta[B45,B41,1] = 1
 S1[B41,B46]: delta[B41,B46,0] + delta[B41,B46,1] + delta[B46,B41,0]
   + delta[B46,B41,1] = 1
 S1[B41,B47]: delta[B41,B47,0] + delta[B41,B47,1] + delta[B47,B41,0]
   + delta[B47,B41,1] = 1
 S1[B41,B48]: delta[B41,B48,0] + delta[B41,B48,1] + delta[B48,B41,0]
   + delta[B48,B41,1] = 1
 S1[B41,B49]: delta[B41,B49,0] + delta[B41,B49,1] + delta[B49,B41,0]
   + delta[B49,B41,1] = 1
 S1[B42,B43]: delta[B42,B43,0] + delta[B42,B43,1] + delta[B43,B42,0]
   + delta[B43,B42,1] = 1
 S1[B42,B44]: delta[B42,B44,0] + delta[B42,B44,1] + delta[B44,B42,0]
   + delta[B44,B42,1] = 1
 S1[B42,B45]: delta[B42,B45,0] + delta[B42,B45,1] + delta[B45,B42,0]
   + delta[B45,B42,1] = 1
 S1[B42,B46]: delta[B42,B46,0] + delta[B42,B46,1] + delta[B46,B42,0]
   + delta[B46,B42,1] = 1
 S1[B42,B47]: delta[B42,B47,0] + delta[B42,B47,1] + delta[B47,B42,0]
   + delta[B47,B42,1] = 1
 S1[B42,B48]: delta[B42,B48,0] + delta[B42,B48,1] + delta[B48,B42,0]
   + delta[B48,B42,1] = 1
 S1[B42,B49]: delta[B42,B49,0] + delta[B42,B49,1] + delta[B49,B42,0]
   + delta[B49,B42,1] = 1
 S1[B43,B44]: delta[B43,B44,0] + delta[B43,B44,1] + delta[B44,B43,0]
   + delta[B44,B43,1] = 1
 S1[B43,B45]: delta[B43,B45,0] + delta[B43,B45,1] + delta[B45,B43,0]
   + delta[B45,B43,1] = 1
 S1[B43,B46]: delta[B43,B46,0] + delta[B43,B46,1] + delta[B46,B43,0]
   + delta[B46,B43,1] = 1
 S1[B43,B47]: delta[B43,B47,0] + delta[B43,B47,1] + delta[B47,B43,0]
   + delta[B47,B43,1] = 1
 S1[B43,B48]: delta[B43,B48,0] + delta[B43,B48,1] + delta[B48,B43,0]
   + delta[B48,B43,1] = 1
 S1[B43,B49]: delta[B43,B49,0] + delta[B43,B49,1] + delta[B49,B43,0]
   + delta[B49,B43,1] = 1
 S1[B44,B45]: delta[B44,B45,0] + delta[B44,B45,1] + delta[B45,B44,0]
   + delta[B45,B44,1] = 1
 S1[B44,B46]: delta[B44,B46,0] + delta[B44,B46,1] + delta[B46,B44,0]
   + delta[B46,B44,1] = 1
 S1[B44,B47]: delta[B44,B47,0] + delta[B44,B47,1] + delta[B47,B44,0]
   + delta[B47,B44,1] = 1
 S1[B44,B48]: delta[B44,B48,0] + delta[B44,B48,1] + delta[B48,B44,0]
   + delta[B48,B44,1] = 1
 S1[B44,B49]: delta[B44,B49,0] + delta[B44,B49,1] + delta[B49,B44,0]
   + delta[B49,B44,1] = 1
 S1[B45,B46]: delta[B45,B46,0] + delta[B45,B46,1] + delta[B46,B45,0]
   + delta[B46,B45,1] = 1
 S1[B45,B47]: delta[B45,B47,0] + delta[B45,B47,1] + delta[B47,B45,0]
   + delta[B47,B45,1] = 1
 S1[B45,B48]: delta[B45,B48,0] + delta[B45,B48,1] + delta[B48,B45,0]
   + delta[B48,B45,1] = 1
 S1[B45,B49]: delta[B45,B49,0] + delta[B45,B49,1] + delta[B49,B45,0]
   + delta[B49,B45,1] = 1
 S1[B46,B47]: delta[B46,B47,0] + delta[B46,B47,1] + delta[B47,B46,0]
   + delta[B47,B46,1] = 1
 S1[B46,B48]: delta[B46,B48,0] + delta[B46,B48,1] + delta[B48,B46,0]
   + delta[B48,B46,1] = 1
 S1[B46,B49]: delta[B46,B49,0] + delta[B46,B49,1] + delta[B49,B46,0]
   + delta[B49,B46,1] = 1
 S1[B47,B48]: delta[B47,B48,0] + delta[B47,B48,1] + delta[B48,B47,0]
   + delta[B48,B47,1] = 1
 S1[B47,B49]: delta[B47,B49,0] + delta[B47,B49,1] + delta[B49,B47,0]
   + delta[B49,B47,1] = 1
 S1[B48,B49]: delta[B48,B49,0] + delta[B48,B49,1] + delta[B49,B48,0]
   + delta[B49,B48,1] = 1
Bounds
 4.5 <= c[B0,0] <= 90.5
 11.5 <= c[B0,1] <= 9994.5
 22 <= c[B1,0] <= 92
 6.5 <= c[B1,1] <= 9993.5
 3 <= c[B2,0] <= 93
 5.5 <= c[B2,1] <= 9994.5
 18 <= c[B3,0] <= 78
 10.5 <= c[B3,1] <= 9992.5
 3 <= c[B4,0] <= 97
 6.5 <= c[B4,1] <= 9984.5
 3 <= c[B5,0] <= 91
 3 <= c[B5,1] <= 9992
 7.5 <= c[B6,0] <= 92.5
 4 <= c[B6,1] <= 9996
 12.5 <= c[B7,0] <= 86.5
 4 <= c[B7,1] <= 9995
 9.5 <= c[B8,0] <= 96.5
 11 <= c[B8,1] <= 9992
 6.5 <= c[B9,0] <= 94.5
 4.5 <= c[B9,1] <= 9995.5
 5 <= c[B10,0] <= 95
 5 <= c[B10,1] <= 9988
 8.5 <= c[B11,0] <= 95.5
 11 <= c[B11,1] <= 9995
 9.5 <= c[B12,0] <= 83.5
 7 <= c[B12,1] <= 9994
 10 <= c[B13,0] <= 93
 4 <= c[B13,1] <= 9995
 9 <= c[B14,0] <= 93
 7.5 <= c[B14,1] <= 9993.5
 8 <= c[B15,0] <= 92
 16 <= c[B15,1] <= 9990
 6.5 <= c[B16,0] <= 93.5
 9 <= c[B16,1] <= 9990
 16 <= c[B17,0] <= 87
 25.5 <= c[B17,1] <= 9990.5
 14 <= c[B18,0] <= 90
 3.5 <= c[B18,1] <= 9996.5
 6.5 <= c[B19,0] <= 81.5
 5 <= c[B19,1] <= 9986
 8 <= c[B20,0] <= 92
 15 <= c[B20,1] <= 9995
 11 <= c[B21,0] <= 89
 10 <= c[B21,1] <= 9993
 4.5 <= c[B22,0] <= 95.5
 20 <= c[B22,1] <= 9993
 4 <= c[B23,0] <= 93
 8 <= c[B23,1] <= 9984
 14 <= c[B24,0] <= 95
 22.5 <= c[B24,1] <= 9991.5
 8 <= c[B25,0] <= 89
 4.5 <= c[B25,1] <= 9986.5
 3.5 <= c[B26,0] <= 96.5
 3.5 <= c[B26,1] <= 9996.5
 5 <= c[B27,0] <= 89
 11.5 <= c[B27,1] <= 9990.5
 8.5 <= c[B28,0] <= 74.5
 3.5 <= c[B28,1] <= 9993.5
 19 <= c[B29,0] <= 79
 14.5 <= c[B29,1] <= 9989.5
 6 <= c[B30,0] <= 93
 10 <= c[B30,1] <= 9990
 9 <= c[B31,0] <= 91
 8.5 <= c[B31,1] <= 9991.5
 16 <= c[B32,0] <= 94
 8.5 <= c[B32,1] <= 9995.5
 16.5 <= c[B33,0] <= 85.5
 3 <= c[B33,1] <= 9991
 2.5 <= c[B34,0] <= 97.5
 6.5 <= c[B34,1] <= 9988.5
 15 <= c[B35,0] <= 85
 13.5 <= c[B35,1] <= 9995.5
 5 <= c[B36,0] <= 93
 5.5 <= c[B36,1] <= 9989.5
 8 <= c[B37,0] <= 93
 3.5 <= c[B37,1] <= 9993.5
 16.5 <= c[B38,0] <= 88.5
 6.5 <= c[B38,1] <= 9993.5
 19 <= c[B39,0] <= 74
 10.5 <= c[B39,1] <= 9977.5
 14 <= c[B40,0] <= 95
 3 <= c[B40,1] <= 9991
 4.5 <= c[B41,0] <= 92.5
 5 <= c[B41,1] <= 9995
 7.5 <= c[B42,0] <= 80.5
 19.5 <= c[B42,1] <= 9985.5
 13 <= c[B43,0] <= 78
 10.5 <= c[B43,1] <= 9995.5
 8 <= c[B44,0] <= 92
 10 <= c[B44,1] <= 9995
 5 <= c[B45,0] <= 95
 17 <= c[B45,1] <= 9989
 12.5 <= c[B46,0] <= 95.5
 3.5 <= c[B46,1] <= 9993.5
 6 <= c[B47,0] <= 94
 5.5 <= c[B47,1] <= 9986.5
 7.5 <= c[B48,0] <= 82.5
 4.5 <= c[B48,1] <= 9995.5
 6 <= c[B49,0] <= 94
 7.5 <= c[B49,1] <= 9994.5
 27.5 <= h <= 847
Binaries
 delta[B0,B1,0] delta[B0,B1,1] delta[B0,B2,0] delta[B0,B2,1] delta[B0,B3,0]
 delta[B0,B3,1] delta[B0,B4,0] delta[B0,B4,1] delta[B0,B5,0] delta[B0,B5,1]
 delta[B0,B6,0] delta[B0,B6,1] delta[B0,B7,0] delta[B0,B7,1] delta[B0,B8,0]
 delta[B0,B8,1] delta[B0,B9,0] delta[B0,B9,1] delta[B0,B10,0]
 delta[B0,B10,1] delta[B0,B11,0] delta[B0,B11,1] delta[B0,B12,0]
 delta[B0,B12,1] delta[B0,B13,0] delta[B0,B13,1] delta[B0,B14,0]
 delta[B0,B14,1] delta[B0,B15,0] delta[B0,B15,1] delta[B0,B16,0]
 delta[B0,B16,1] delta[B0,B17,0] delta[B0,B17,1] delta[B0,B18,0]
 delta[B0,B18,1] delta[B0,B19,0] delta[B0,B19,1] delta[B0,B20,0]
 delta[B0,B20,1] delta[B0,B21,0] delta[B0,B21,1] delta[B0,B22,0]
 delta[B0,B22,1] delta[B0,B23,0] delta[B0,B23,1] delta[B0,B24,0]
 delta[B0,B24,1] delta[B0,B25,0] delta[B0,B25,1] delta[B0,B26,0]
 delta[B0,B26,1] delta[B0,B27,0] delta[B0,B27,1] delta[B0,B28,0]
 delta[B0,B28,1] delta[B0,B29,0] delta[B0,B29,1] delta[B0,B30,0]
 delta[B0,B30,1] delta[B0,B31,0] delta[B0,B31,1] delta[B0,B32,0]
 delta[B0,B32,1] delta[B0,B33,0] delta[B0,B33,1] delta[B0,B34,0]
 delta[B0,B34,1] delta[B0,B35,0] delta[B0,B35,1] delta[B0,B36,0]
 delta[B0,B36,1] delta[B0,B37,0] delta[B0,B37,1] delta[B0,B38,0]
 delta[B0,B38,1] delta[B0,B39,0] delta[B0,B39,1] delta[B0,B40,0]
 delta[B0,B40,1] delta[B0,B41,0] delta[B0,B41,1] delta[B0,B42,0]
 delta[B0,B42,1] delta[B0,B43,0] delta[B0,B43,1] delta[B0,B44,0]
 delta[B0,B44,1] delta[B0,B45,0] delta[B0,B45,1] delta[B0,B46,0]
 delta[B0,B46,1] delta[B0,B47,0] delta[B0,B47,1] delta[B0,B48,0]
 delta[B0,B48,1] delta[B0,B49,0] delta[B0,B49,1] delta[B1,B0,0]
 delta[B1,B0,1] delta[B1,B2,0] delta[B1,B2,1] delta[B1,B3,0] delta[B1,B3,1]
 delta[B1,B4,0] delta[B1,B4,1] delta[B1,B5,0] delta[B1,B5,1] delta[B1,B6,0]
 delta[B1,B6,1] delta[B1,B7,0] delta[B1,B7,1] delta[B1,B8,0] delta[B1,B8,1]
 delta[B1,B9,0] delta[B1,B9,1] delta[B1,B10,0] delta[B1,B10,1]
 delta[B1,B11,0] delta[B1,B11,1] delta[B1,B12,0] delta[B1,B12,1]
 delta[B1,B13,0] delta[B1,B13,1] delta[B1,B14,0] delta[B1,B14,1]
 delta[B1,B15,0] delta[B1,B15,1] delta[B1,B16,0] delta[B1,B16,1]
 delta[B1,B17,0] delta[B1,B17,1] delta[B1,B18,0] delta[B1,B18,1]
 delta[B1,B19,0] delta[B1,B19,1] delta[B1,B20,0] delta[B1,B20,1]
 delta[B1,B21,0] delta[B1,B21,1] delta[B1,B22,0] delta[B1,B22,1]
 delta[B1,B23,0] delta[B1,B23,1] delta[B1,B24,0] delta[B1,B24,1]
 delta[B1,B25,0] delta[B1,B25,1] delta[B1,B26,0] delta[B1,B26,1]
 delta[B1,B27,0] delta[B1,B27,1] delta[B1,B28,0] delta[B1,B28,1]
 delta[B1,B29,0] delta[B1,B29,1] delta[B1,B30,0] delta[B1,B30,1]
 delta[B1,B31,0] delta[B1,B31,1] delta[B1,B32,0] delta[B1,B32,1]
 delta[B1,B33,0] delta[B1,B33,1] delta[B1,B34,0] delta[B1,B34,1]
 delta[B1,B35,0] delta[B1,B35,1] delta[B1,B36,0] delta[B1,B36,1]
 delta[B1,B37,0] delta[B1,B37,1] delta[B1,B38,0] delta[B1,B38,1]
 delta[B1,B39,0] delta[B1,B39,1] delta[B1,B40,0] delta[B1,B40,1]
 delta[B1,B41,0] delta[B1,B41,1] delta[B1,B42,0] delta[B1,B42,1]
 delta[B1,B43,0] delta[B1,B43,1] delta[B1,B44,0] delta[B1,B44,1]
 delta[B1,B45,0] delta[B1,B45,1] delta[B1,B46,0] delta[B1,B46,1]
 delta[B1,B47,0] delta[B1,B47,1] delta[B1,B48,0] delta[B1,B48,1]
 delta[B1,B49,0] delta[B1,B49,1] delta[B2,B0,0] delta[B2,B0,1]
 delta[B2,B1,0] delta[B2,B1,1] delta[B2,B3,0] delta[B2,B3,1] delta[B2,B4,0]
 delta[B2,B4,1] delta[B2,B5,0] delta[B2,B5,1] delta[B2,B6,0] delta[B2,B6,1]
 delta[B2,B7,0] delta[B2,B7,1] delta[B2,B8,0] delta[B2,B8,1] delta[B2,B9,0]
 delta[B2,B9,1] delta[B2,B10,0] delta[B2,B10,1] delta[B2,B11,0]
 delta[B2,B11,1] delta[B2,B12,0] delta[B2,B12,1] delta[B2,B13,0]
 delta[B2,B13,1] delta[B2,B14,0] delta[B2,B14,1] delta[B2,B15,0]
 delta[B2,B15,1] delta[B2,B16,0] delta[B2,B16,1] delta[B2,B17,0]
 delta[B2,B17,1] delta[B2,B18,0] delta[B2,B18,1] delta[B2,B19,0]
 delta[B2,B19,1] delta[B2,B20,0] delta[B2,B20,1] delta[B2,B21,0]
 delta[B2,B21,1] delta[B2,B22,0] delta[B2,B22,1] delta[B2,B23,0]
 delta[B2,B23,1] delta[B2,B24,0] delta[B2,B24,1] delta[B2,B25,0]
 delta[B2,B25,1] delta[B2,B26,0] delta[B2,B26,1] delta[B2,B27,0]
 delta[B2,B27,1] delta[B2,B28,0] delta[B2,B28,1] delta[B2,B29,0]
 delta[B2,B29,1] delta[B2,B30,0] delta[B2,B30,1] delta[B2,B31,0]
 delta[B2,B31,1] delta[B2,B32,0] delta[B2,B32,1] delta[B2,B33,0]
 delta[B2,B33,1] delta[B2,B34,0] delta[B2,B34,1] delta[B2,B35,0]
 delta[B2,B35,1] delta[B2,B36,0] delta[B2,B36,1] delta[B2,B37,0]
 delta[B2,B37,1] delta[B2,B38,0] delta[B2,B38,1] delta[B2,B39,0]
 delta[B2,B39,1] delta[B2,B40,0] delta[B2,B40,1] delta[B2,B41,0]
 delta[B2,B41,1] delta[B2,B42,0] delta[B2,B42,1] delta[B2,B43,0]
 delta[B2,B43,1] delta[B2,B44,0] delta[B2,B44,1] delta[B2,B45,0]
 delta[B2,B45,1] delta[B2,B46,0] delta[B2,B46,1] delta[B2,B47,0]
 delta[B2,B47,1] delta[B2,B48,0] delta[B2,B48,1] delta[B2,B49,0]
 delta[B2,B49,1] delta[B3,B0,0] delta[B3,B0,1] delta[B3,B1,0]
 delta[B3,B1,1] delta[B3,B2,0] delta[B3,B2,1] delta[B3,B4,0] delta[B3,B4,1]
 delta[B3,B5,0] delta[B3,B5,1] delta[B3,B6,0] delta[B3,B6,1] delta[B3,B7,0]
 delta[B3,B7,1] delta[B3,B8,0] delta[B3,B8,1] delta[B3,B9,0] delta[B3,B9,1]
 delta[B3,B10,0] delta[B3,B10,1] delta[B3,B11,0] delta[B3,B11,1]
 delta[B3,B12,0] delta[B3,B12,1] delta[B3,B13,0] delta[B3,B13,1]
 delta[B3,B14,0] delta[B3,B14,1] delta[B3,B15,0] delta[B3,B15,1]
 delta[B3,B16,0] delta[B3,B16,1] delta[B3,B17,0] delta[B3,B17,1]
 delta[B3,B18,0] delta[B3,B18,1] delta[B3,B19,0] delta[B3,B19,1]
 delta[B3,B20,0] delta[B3,B20,1] delta[B3,B21,0] delta[B3,B21,1]
 delta[B3,B22,0] delta[B3,B22,1] delta[B3,B23,0] delta[B3,B23,1]
 delta[B3,B24,0] delta[B3,B24,1] delta[B3,B25,0] delta[B3,B25,1]
 delta[B3,B26,0] delta[B3,B26,1] delta[B3,B27,0] delta[B3,B27,1]
 delta[B3,B28,0] delta[B3,B28,1] delta[B3,B29,0] delta[B3,B29,1]
 delta[B3,B30,0] delta[B3,B30,1] delta[B3,B31,0] delta[B3,B31,1]
 delta[B3,B32,0] delta[B3,B32,1] delta[B3,B33,0] delta[B3,B33,1]
 delta[B3,B34,0] delta[B3,B34,1] delta[B3,B35,0] delta[B3,B35,1]
 delta[B3,B36,0] delta[B3,B36,1] delta[B3,B37,0] delta[B3,B37,1]
 delta[B3,B38,0] delta[B3,B38,1] delta[B3,B39,0] delta[B3,B39,1]
 delta[B3,B40,0] delta[B3,B40,1] delta[B3,B41,0] delta[B3,B41,1]
 delta[B3,B42,0] delta[B3,B42,1] delta[B3,B43,0] delta[B3,B43,1]
 delta[B3,B44,0] delta[B3,B44,1] delta[B3,B45,0] delta[B3,B45,1]
 delta[B3,B46,0] delta[B3,B46,1] delta[B3,B47,0] delta[B3,B47,1]
 delta[B3,B48,0] delta[B3,B48,1] delta[B3,B49,0] delta[B3,B49,1]
 delta[B4,B0,0] delta[B4,B0,1] delta[B4,B1,0] delta[B4,B1,1] delta[B4,B2,0]
 delta[B4,B2,1] delta[B4,B3,0] delta[B4,B3,1] delta[B4,B5,0] delta[B4,B5,1]
 delta[B4,B6,0] delta[B4,B6,1] delta[B4,B7,0] delta[B4,B7,1] delta[B4,B8,0]
 delta[B4,B8,1] delta[B4,B9,0] delta[B4,B9,1] delta[B4,B10,0]
 delta[B4,B10,1] delta[B4,B11,0] delta[B4,B11,1] delta[B4,B12,0]
 delta[B4,B12,1] delta[B4,B13,0] delta[B4,B13,1] delta[B4,B14,0]
 delta[B4,B14,1] delta[B4,B15,0] delta[B4,B15,1] delta[B4,B16,0]
 delta[B4,B16,1] delta[B4,B17,0] delta[B4,B17,1] delta[B4,B18,0]
 delta[B4,B18,1] delta[B4,B19,0] delta[B4,B19,1] delta[B4,B20,0]
 delta[B4,B20,1] delta[B4,B21,0] delta[B4,B21,1] delta[B4,B22,0]
 delta[B4,B22,1] delta[B4,B23,0] delta[B4,B23,1] delta[B4,B24,0]
 delta[B4,B24,1] delta[B4,B25,0] delta[B4,B25,1] delta[B4,B26,0]
 delta[B4,B26,1] delta[B4,B27,0] delta[B4,B27,1] delta[B4,B28,0]
 delta[B4,B28,1] delta[B4,B29,0] delta[B4,B29,1] delta[B4,B30,0]
 delta[B4,B30,1] delta[B4,B31,0] delta[B4,B31,1] delta[B4,B32,0]
 delta[B4,B32,1] delta[B4,B33,0] delta[B4,B33,1] delta[B4,B34,0]
 delta[B4,B34,1] delta[B4,B35,0] delta[B4,B35,1] delta[B4,B36,0]
 delta[B4,B36,1] delta[B4,B37,0] delta[B4,B37,1] delta[B4,B38,0]
 delta[B4,B38,1] delta[B4,B39,0] delta[B4,B39,1] delta[B4,B40,0]
 delta[B4,B40,1] delta[B4,B41,0] delta[B4,B41,1] delta[B4,B42,0]
 delta[B4,B42,1] delta[B4,B43,0] delta[B4,B43,1] delta[B4,B44,0]
 delta[B4,B44,1] delta[B4,B45,0] delta[B4,B45,1] delta[B4,B46,0]
 delta[B4,B46,1] delta[B4,B47,0] delta[B4,B47,1] delta[B4,B48,0]
 delta[B4,B48,1] delta[B4,B49,0] delta[B4,B49,1] delta[B5,B0,0]
 delta[B5,B0,1] delta[B5,B1,0] delta[B5,B1,1] delta[B5,B2,0] delta[B5,B2,1]
 delta[B5,B3,0] delta[B5,B3,1] delta[B5,B4,0] delta[B5,B4,1] delta[B5,B6,0]
 delta[B5,B6,1] delta[B5,B7,0] delta[B5,B7,1] delta[B5,B8,0] delta[B5,B8,1]
 delta[B5,B9,0] delta[B5,B9,1] delta[B5,B10,0] delta[B5,B10,1]
 delta[B5,B11,0] delta[B5,B11,1] delta[B5,B12,0] delta[B5,B12,1]
 delta[B5,B13,0] delta[B5,B13,1] delta[B5,B14,0] delta[B5,B14,1]
 delta[B5,B15,0] delta[B5,B15,1] delta[B5,B16,0] delta[B5,B16,1]
 delta[B5,B17,0] delta[B5,B17,1] delta[B5,B18,0] delta[B5,B18,1]
 delta[B5,B19,0] delta[B5,B19,1] delta[B5,B20,0] delta[B5,B20,1]
 delta[B5,B21,0] delta[B5,B21,1] delta[B5,B22,0] delta[B5,B22,1]
 delta[B5,B23,0] delta[B5,B23,1] delta[B5,B24,0] delta[B5,B24,1]
 delta[B5,B25,0] delta[B5,B25,1] delta[B5,B26,0] delta[B5,B26,1]
 delta[B5,B27,0] delta[B5,B27,1] delta[B5,B28,0] delta[B5,B28,1]
 delta[B5,B29,0] delta[B5,B29,1] delta[B5,B30,0] delta[B5,B30,1]
 delta[B5,B31,0] delta[B5,B31,1] delta[B5,B32,0] delta[B5,B32,1]
 delta[B5,B33,0] delta[B5,B33,1] delta[B5,B34,0] delta[B5,B34,1]
 delta[B5,B35,0] delta[B5,B35,1] delta[B5,B36,0] delta[B5,B36,1]
 delta[B5,B37,0] delta[B5,B37,1] delta[B5,B38,0] delta[B5,B38,1]
 delta[B5,B39,0] delta[B5,B39,1] delta[B5,B40,0] delta[B5,B40,1]
 delta[B5,B41,0] delta[B5,B41,1] delta[B5,B42,0] delta[B5,B42,1]
 delta[B5,B43,0] delta[B5,B43,1] delta[B5,B44,0] delta[B5,B44,1]
 delta[B5,B45,0] delta[B5,B45,1] delta[B5,B46,0] delta[B5,B46,1]
 delta[B5,B47,0] delta[B5,B47,1] delta[B5,B48,0] delta[B5,B48,1]
 delta[B5,B49,0] delta[B5,B49,1] delta[B6,B0,0] delta[B6,B0,1]
 delta[B6,B1,0] delta[B6,B1,1] delta[B6,B2,0] delta[B6,B2,1] delta[B6,B3,0]
 delta[B6,B3,1] delta[B6,B4,0] delta[B6,B4,1] delta[B6,B5,0] delta[B6,B5,1]
 delta[B6,B7,0] delta[B6,B7,1] delta[B6,B8,0] delta[B6,B8,1] delta[B6,B9,0]
 delta[B6,B9,1] delta[B6,B10,0] delta[B6,B10,1] delta[B6,B11,0]
 delta[B6,B11,1] delta[B6,B12,0] delta[B6,B12,1] delta[B6,B13,0]
 delta[B6,B13,1] delta[B6,B14,0] delta[B6,B14,1] delta[B6,B15,0]
 delta[B6,B15,1] delta[B6,B16,0] delta[B6,B16,1] delta[B6,B17,0]
 delta[B6,B17,1] delta[B6,B18,0] delta[B6,B18,1] delta[B6,B19,0]
 delta[B6,B19,1] delta[B6,B20,0] delta[B6,B20,1] delta[B6,B21,0]
 delta[B6,B21,1] delta[B6,B22,0] delta[B6,B22,1] delta[B6,B23,0]
 delta[B6,B23,1] delta[B6,B24,0] delta[B6,B24,1] delta[B6,B25,0]
 delta[B6,B25,1] delta[B6,B26,0] delta[B6,B26,1] delta[B6,B27,0]
 delta[B6,B27,1] delta[B6,B28,0] delta[B6,B28,1] delta[B6,B29,0]
 delta[B6,B29,1] delta[B6,B30,0] delta[B6,B30,1] delta[B6,B31,0]
 delta[B6,B31,1] delta[B6,B32,0] delta[B6,B32,1] delta[B6,B33,0]
 delta[B6,B33,1] delta[B6,B34,0] delta[B6,B34,1] delta[B6,B35,0]
 delta[B6,B35,1] delta[B6,B36,0] delta[B6,B36,1] delta[B6,B37,0]
 delta[B6,B37,1] delta[B6,B38,0] delta[B6,B38,1] delta[B6,B39,0]
 delta[B6,B39,1] delta[B6,B40,0] delta[B6,B40,1] delta[B6,B41,0]
 delta[B6,B41,1] delta[B6,B42,0] delta[B6,B42,1] delta[B6,B43,0]
 delta[B6,B43,1] delta[B6,B44,0] delta[B6,B44,1] delta[B6,B45,0]
 delta[B6,B45,1] delta[B6,B46,0] delta[B6,B46,1] delta[B6,B47,0]
 delta[B6,B47,1] delta[B6,B48,0] delta[B6,B48,1] delta[B6,B49,0]
 delta[B6,B49,1] delta[B7,B0,0] delta[B7,B0,1] delta[B7,B1,0]
 delta[B7,B1,1] delta[B7,B2,0] delta[B7,B2,1] delta[B7,B3,0] delta[B7,B3,1]
 delta[B7,B4,0] delta[B7,B4,1] delta[B7,B5,0] delta[B7,B5,1] delta[B7,B6,0]
 delta[B7,B6,1] delta[B7,B8,0] delta[B7,B8,1] delta[B7,B9,0] delta[B7,B9,1]
 delta[B7,B10,0] delta[B7,B10,1] delta[B7,B11,0] delta[B7,B11,1]
 delta[B7,B12,0] delta[B7,B12,1] delta[B7,B13,0] delta[B7,B13,1]
 delta[B7,B14,0] delta[B7,B14,1] delta[B7,B15,0] delta[B7,B15,1]
 delta[B7,B16,0] delta[B7,B16,1] delta[B7,B17,0] delta[B7,B17,1]
 delta[B7,B18,0] delta[B7,B18,1] delta[B7,B19,0] delta[B7,B19,1]
 delta[B7,B20,0] delta[B7,B20,1] delta[B7,B21,0] delta[B7,B21,1]
 delta[B7,B22,0] delta[B7,B22,1] delta[B7,B23,0] delta[B7,B23,1]
 delta[B7,B24,0] delta[B7,B24,1] delta[B7,B25,0] delta[B7,B25,1]
 delta[B7,B26,0] delta[B7,B26,1] delta[B7,B27,0] delta[B7,B27,1]
 delta[B7,B28,0] delta[B7,B28,1] delta[B7,B29,0] delta[B7,B29,1]
 delta[B7,B30,0] delta[B7,B30,1] delta[B7,B31,0] delta[B7,B31,1]
 delta[B7,B32,0] delta[B7,B32,1] delta[B7,B33,0] delta[B7,B33,1]
 delta[B7,B34,0] delta[B7,B34,1] delta[B7,B35,0] delta[B7,B35,1]
 delta[B7,B36,0] delta[B7,B36,1] delta[B7,B37,0] delta[B7,B37,1]
 delta[B7,B38,0] delta[B7,B38,1] delta[B7,B39,0] delta[B7,B39,1]
 delta[B7,B40,0] delta[B7,B40,1] delta[B7,B41,0] delta[B7,B41,1]
 delta[B7,B42,0] delta[B7,B42,1] delta[B7,B43,0] delta[B7,B43,1]
 delta[B7,B44,0] delta[B7,B44,1] delta[B7,B45,0] delta[B7,B45,1]
 delta[B7,B46,0] delta[B7,B46,1] delta[B7,B47,0] delta[B7,B47,1]
 delta[B7,B48,0] delta[B7,B48,1] delta[B7,B49,0] delta[B7,B49,1]
 delta[B8,B0,0] delta[B8,B0,1] delta[B8,B1,0] delta[B8,B1,1] delta[B8,B2,0]
 delta[B8,B2,1] delta[B8,B3,0] delta[B8,B3,1] delta[B8,B4,0] delta[B8,B4,1]
 delta[B8,B5,0] delta[B8,B5,1] delta[B8,B6,0] delta[B8,B6,1] delta[B8,B7,0]
 delta[B8,B7,1] delta[B8,B9,0] delta[B8,B9,1] delta[B8,B10,0]
 delta[B8,B10,1] delta[B8,B11,0] delta[B8,B11,1] delta[B8,B12,0]
 delta[B8,B12,1] delta[B8,B13,0] delta[B8,B13,1] delta[B8,B14,0]
 delta[B8,B14,1] delta[B8,B15,0] delta[B8,B15,1] delta[B8,B16,0]
 delta[B8,B16,1] delta[B8,B17,0] delta[B8,B17,1] delta[B8,B18,0]
 delta[B8,B18,1] delta[B8,B19,0] delta[B8,B19,1] delta[B8,B20,0]
 delta[B8,B20,1] delta[B8,B21,0] delta[B8,B21,1] delta[B8,B22,0]
 delta[B8,B22,1] delta[B8,B23,0] delta[B8,B23,1] delta[B8,B24,0]
 delta[B8,B24,1] delta[B8,B25,0] delta[B8,B25,1] delta[B8,B26,0]
 delta[B8,B26,1] delta[B8,B27,0] delta[B8,B27,1] delta[B8,B28,0]
 delta[B8,B28,1] delta[B8,B29,0] delta[B8,B29,1] delta[B8,B30,0]
 delta[B8,B30,1] delta[B8,B31,0] delta[B8,B31,1] delta[B8,B32,0]
 delta[B8,B32,1] delta[B8,B33,0] delta[B8,B33,1] delta[B8,B34,0]
 delta[B8,B34,1] delta[B8,B35,0] delta[B8,B35,1] delta[B8,B36,0]
 delta[B8,B36,1] delta[B8,B37,0] delta[B8,B37,1] delta[B8,B38,0]
 delta[B8,B38,1] delta[B8,B39,0] delta[B8,B39,1] delta[B8,B40,0]
 delta[B8,B40,1] delta[B8,B41,0] delta[B8,B41,1] delta[B8,B42,0]
 delta[B8,B42,1] delta[B8,B43,0] delta[B8,B43,1] delta[B8,B44,0]
 delta[B8,B44,1] delta[B8,B45,0] delta[B8,B45,1] delta[B8,B46,0]
 delta[B8,B46,1] delta[B8,B47,0] delta[B8,B47,1] delta[B8,B48,0]
 delta[B8,B48,1] delta[B8,B49,0] delta[B8,B49,1] delta[B9,B0,0]
 delta[B9,B0,1] delta[B9,B1,0] delta[B9,B1,1] delta[B9,B2,0] delta[B9,B2,1]
 delta[B9,B3,0] delta[B9,B3,1] delta[B9,B4,0] delta[B9,B4,1] delta[B9,B5,0]
 delta[B9,B5,1] delta[B9,B6,0] delta[B9,B6,1] delta[B9,B7,0] delta[B9,B7,1]
 delta[B9,B8,0] delta[B9,B8,1] delta[B9,B10,0] delta[B9,B10,1]
 delta[B9,B11,0] delta[B9,B11,1] delta[B9,B12,0] delta[B9,B12,1]
 delta[B9,B13,0] delta[B9,B13,1] delta[B9,B14,0] delta[B9,B14,1]
 delta[B9,B15,0] delta[B9,B15,1] delta[B9,B16,0] delta[B9,B16,1]
 delta[B9,B17,0] delta[B9,B17,1] delta[B9,B18,0] delta[B9,B18,1]
 delta[B9,B19,0] delta[B9,B19,1] delta[B9,B20,0] delta[B9,B20,1]
 delta[B9,B21,0] delta[B9,B21,1] delta[B9,B22,0] delta[B9,B22,1]
 delta[B9,B23,0] delta[B9,B23,1] delta[B9,B24,0] delta[B9,B24,1]
 delta[B9,B25,0] delta[B9,B25,1] delta[B9,B26,0] delta[B9,B26,1]
 delta[B9,B27,0] delta[B9,B27,1] delta[B9,B28,0] delta[B9,B28,1]
 delta[B9,B29,0] delta[B9,B29,1] delta[B9,B30,0] delta[B9,B30,1]
 delta[B9,B31,0] delta[B9,B31,1] delta[B9,B32,0] delta[B9,B32,1]
 delta[B9,B33,0] delta[B9,B33,1] delta[B9,B34,0] delta[B9,B34,1]
 delta[B9,B35,0] delta[B9,B35,1] delta[B9,B36,0] delta[B9,B36,1]
 delta[B9,B37,0] delta[B9,B37,1] delta[B9,B38,0] delta[B9,B38,1]
 delta[B9,B39,0] delta[B9,B39,1] delta[B9,B40,0] delta[B9,B40,1]
 delta[B9,B41,0] delta[B9,B41,1] delta[B9,B42,0] delta[B9,B42,1]
 delta[B9,B43,0] delta[B9,B43,1] delta[B9,B44,0] delta[B9,B44,1]
 delta[B9,B45,0] delta[B9,B45,1] delta[B9,B46,0] delta[B9,B46,1]
 delta[B9,B47,0] delta[B9,B47,1] delta[B9,B48,0] delta[B9,B48,1]
 delta[B9,B49,0] delta[B9,B49,1] delta[B10,B0,0] delta[B10,B0,1]
 delta[B10,B1,0] delta[B10,B1,1] delta[B10,B2,0] delta[B10,B2,1]
 delta[B10,B3,0] delta[B10,B3,1] delta[B10,B4,0] delta[B10,B4,1]
 delta[B10,B5,0] delta[B10,B5,1] delta[B10,B6,0] delta[B10,B6,1]
 delta[B10,B7,0] delta[B10,B7,1] delta[B10,B8,0] delta[B10,B8,1]
 delta[B10,B9,0] delta[B10,B9,1] delta[B10,B11,0] delta[B10,B11,1]
 delta[B10,B12,0] delta[B10,B12,1] delta[B10,B13,0] delta[B10,B13,1]
 delta[B10,B14,0] delta[B10,B14,1] delta[B10,B15,0] delta[B10,B15,1]
 delta[B10,B16,0] delta[B10,B16,1] delta[B10,B17,0] delta[B10,B17,1]
 delta[B10,B18,0] delta[B10,B18,1] delta[B10,B19,0] delta[B10,B19,1]
 delta[B10,B20,0] delta[B10,B20,1] delta[B10,B21,0] delta[B10,B21,1]
 delta[B10,B22,0] delta[B10,B22,1] delta[B10,B23,0] delta[B10,B23,1]
 delta[B10,B24,0] delta[B10,B24,1] delta[B10,B25,0] delta[B10,B25,1]
 delta[B10,B26,0] delta[B10,B26,1] delta[B10,B27,0] delta[B10,B27,1]
 delta[B10,B28,0] delta[B10,B28,1] delta[B10,B29,0] delta[B10,B29,1]
 delta[B10,B30,0] delta[B10,B30,1] delta[B10,B31,0] delta[B10,B31,1]
 delta[B10,B32,0] delta[B10,B32,1] delta[B10,B33,0] delta[B10,B33,1]
 delta[B10,B34,0] delta[B10,B34,1] delta[B10,B35,0] delta[B10,B35,1]
 delta[B10,B36,0] delta[B10,B36,1] delta[B10,B37,0] delta[B10,B37,1]
 delta[B10,B38,0] delta[B10,B38,1] delta[B10,B39,0] delta[B10,B39,1]
 delta[B10,B40,0] delta[B10,B40,1] delta[B10,B41,0] delta[B10,B41,1]
 delta[B10,B42,0] delta[B10,B42,1] delta[B10,B43,0] delta[B10,B43,1]
 delta[B10,B44,0] delta[B10,B44,1] delta[B10,B45,0] delta[B10,B45,1]
 delta[B10,B46,0] delta[B10,B46,1] delta[B10,B47,0] delta[B10,B47,1]
 delta[B10,B48,0] delta[B10,B48,1] delta[B10,B49,0] delta[B10,B49,1]
 delta[B11,B0,0] delta[B11,B0,1] delta[B11,B1,0] delta[B11,B1,1]
 delta[B11,B2,0] delta[B11,B2,1] delta[B11,B3,0] delta[B11,B3,1]
 delta[B11,B4,0] delta[B11,B4,1] delta[B11,B5,0] delta[B11,B5,1]
 delta[B11,B6,0] delta[B11,B6,1] delta[B11,B7,0] delta[B11,B7,1]
 delta[B11,B8,0] delta[B11,B8,1] delta[B11,B9,0] delta[B11,B9,1]
 delta[B11,B10,0] delta[B11,B10,1] delta[B11,B12,0] delta[B11,B12,1]
 delta[B11,B13,0] delta[B11,B13,1] delta[B11,B14,0] delta[B11,B14,1]
 delta[B11,B15,0] delta[B11,B15,1] delta[B11,B16,0] delta[B11,B16,1]
 delta[B11,B17,0] delta[B11,B17,1] delta[B11,B18,0] delta[B11,B18,1]
 delta[B11,B19,0] delta[B11,B19,1] delta[B11,B20,0] delta[B11,B20,1]
 delta[B11,B21,0] delta[B11,B21,1] delta[B11,B22,0] delta[B11,B22,1]
 delta[B11,B23,0] delta[B11,B23,1] delta[B11,B24,0] delta[B11,B24,1]
 delta[B11,B25,0] delta[B11,B25,1] delta[B11,B26,0] delta[B11,B26,1]
 delta[B11,B27,0] delta[B11,B27,1] delta[B11,B28,0] delta[B11,B28,1]
 delta[B11,B29,0] delta[B11,B29,1] delta[B11,B30,0] delta[B11,B30,1]
 delta[B11,B31,0] delta[B11,B31,1] delta[B11,B32,0] delta[B11,B32,1]
 delta[B11,B33,0] delta[B11,B33,1] delta[B11,B34,0] delta[B11,B34,1]
 delta[B11,B35,0] delta[B11,B35,1] delta[B11,B36,0] delta[B11,B36,1]
 delta[B11,B37,0] delta[B11,B37,1] delta[B11,B38,0] delta[B11,B38,1]
 delta[B11,B39,0] delta[B11,B39,1] delta[B11,B40,0] delta[B11,B40,1]
 delta[B11,B41,0] delta[B11,B41,1] delta[B11,B42,0] delta[B11,B42,1]
 delta[B11,B43,0] delta[B11,B43,1] delta[B11,B44,0] delta[B11,B44,1]
 delta[B11,B45,0] delta[B11,B45,1] delta[B11,B46,0] delta[B11,B46,1]
 delta[B11,B47,0] delta[B11,B47,1] delta[B11,B48,0] delta[B11,B48,1]
 delta[B11,B49,0] delta[B11,B49,1] delta[B12,B0,0] delta[B12,B0,1]
 delta[B12,B1,0] delta[B12,B1,1] delta[B12,B2,0] delta[B12,B2,1]
 delta[B12,B3,0] delta[B12,B3,1] delta[B12,B4,0] delta[B12,B4,1]
 delta[B12,B5,0] delta[B12,B5,1] delta[B12,B6,0] delta[B12,B6,1]
 delta[B12,B7,0] delta[B12,B7,1] delta[B12,B8,0] delta[B12,B8,1]
 delta[B12,B9,0] delta[B12,B9,1] delta[B12,B10,0] delta[B12,B10,1]
 delta[B12,B11,0] delta[B12,B11,1] delta[B12,B13,0] delta[B12,B13,1]
 delta[B12,B14,0] delta[B12,B14,1] delta[B12,B15,0] delta[B12,B15,1]
 delta[B12,B16,0] delta[B12,B16,1] delta[B12,B17,0] delta[B12,B17,1]
 delta[B12,B18,0] delta[B12,B18,1] delta[B12,B19,0] delta[B12,B19,1]
 delta[B12,B20,0] delta[B12,B20,1] delta[B12,B21,0] delta[B12,B21,1]
 delta[B12,B22,0] delta[B12,B22,1] delta[B12,B23,0] delta[B12,B23,1]
 delta[B12,B24,0] delta[B12,B24,1] delta[B12,B25,0] delta[B12,B25,1]
 delta[B12,B26,0] delta[B12,B26,1] delta[B12,B27,0] delta[B12,B27,1]
 delta[B12,B28,0] delta[B12,B28,1] delta[B12,B29,0] delta[B12,B29,1]
 delta[B12,B30,0] delta[B12,B30,1] delta[B12,B31,0] delta[B12,B31,1]
 delta[B12,B32,0] delta[B12,B32,1] delta[B12,B33,0] delta[B12,B33,1]
 delta[B12,B34,0] delta[B12,B34,1] delta[B12,B35,0] delta[B12,B35,1]
 delta[B12,B36,0] delta[B12,B36,1] delta[B12,B37,0] delta[B12,B37,1]
 delta[B12,B38,0] delta[B12,B38,1] delta[B12,B39,0] delta[B12,B39,1]
 delta[B12,B40,0] delta[B12,B40,1] delta[B12,B41,0] delta[B12,B41,1]
 delta[B12,B42,0] delta[B12,B42,1] delta[B12,B43,0] delta[B12,B43,1]
 delta[B12,B44,0] delta[B12,B44,1] delta[B12,B45,0] delta[B12,B45,1]
 delta[B12,B46,0] delta[B12,B46,1] delta[B12,B47,0] delta[B12,B47,1]
 delta[B12,B48,0] delta[B12,B48,1] delta[B12,B49,0] delta[B12,B49,1]
 delta[B13,B0,0] delta[B13,B0,1] delta[B13,B1,0] delta[B13,B1,1]
 delta[B13,B2,0] delta[B13,B2,1] delta[B13,B3,0] delta[B13,B3,1]
 delta[B13,B4,0] delta[B13,B4,1] delta[B13,B5,0] delta[B13,B5,1]
 delta[B13,B6,0] delta[B13,B6,1] delta[B13,B7,0] delta[B13,B7,1]
 delta[B13,B8,0] delta[B13,B8,1] delta[B13,B9,0] delta[B13,B9,1]
 delta[B13,B10,0] delta[B13,B10,1] delta[B13,B11,0] delta[B13,B11,1]
 delta[B13,B12,0] delta[B13,B12,1] delta[B13,B14,0] delta[B13,B14,1]
 delta[B13,B15,0] delta[B13,B15,1] delta[B13,B16,0] delta[B13,B16,1]
 delta[B13,B17,0] delta[B13,B17,1] delta[B13,B18,0] delta[B13,B18,1]
 delta[B13,B19,0] delta[B13,B19,1] delta[B13,B20,0] delta[B13,B20,1]
 delta[B13,B21,0] delta[B13,B21,1] delta[B13,B22,0] delta[B13,B22,1]
 delta[B13,B23,0] delta[B13,B23,1] delta[B13,B24,0] delta[B13,B24,1]
 delta[B13,B25,0] delta[B13,B25,1] delta[B13,B26,0] delta[B13,B26,1]
 delta[B13,B27,0] delta[B13,B27,1] delta[B13,B28,0] delta[B13,B28,1]
 delta[B13,B29,0] delta[B13,B29,1] delta[B13,B30,0] delta[B13,B30,1]
 delta[B13,B31,0] delta[B13,B31,1] delta[B13,B32,0] delta[B13,B32,1]
 delta[B13,B33,0] delta[B13,B33,1] delta[B13,B34,0] delta[B13,B34,1]
 delta[B13,B35,0] delta[B13,B35,1] delta[B13,B36,0] delta[B13,B36,1]
 delta[B13,B37,0] delta[B13,B37,1] delta[B13,B38,0] delta[B13,B38,1]
 delta[B13,B39,0] delta[B13,B39,1] delta[B13,B40,0] delta[B13,B40,1]
 delta[B13,B41,0] delta[B13,B41,1] delta[B13,B42,0] delta[B13,B42,1]
 delta[B13,B43,0] delta[B13,B43,1] delta[B13,B44,0] delta[B13,B44,1]
 delta[B13,B45,0] delta[B13,B45,1] delta[B13,B46,0] delta[B13,B46,1]
 delta[B13,B47,0] delta[B13,B47,1] delta[B13,B48,0] delta[B13,B48,1]
 delta[B13,B49,0] delta[B13,B49,1] delta[B14,B0,0] delta[B14,B0,1]
 delta[B14,B1,0] delta[B14,B1,1] delta[B14,B2,0] delta[B14,B2,1]
 delta[B14,B3,0] delta[B14,B3,1] delta[B14,B4,0] delta[B14,B4,1]
 delta[B14,B5,0] delta[B14,B5,1] delta[B14,B6,0] delta[B14,B6,1]
 delta[B14,B7,0] delta[B14,B7,1] delta[B14,B8,0] delta[B14,B8,1]
 delta[B14,B9,0] delta[B14,B9,1] delta[B14,B10,0] delta[B14,B10,1]
 delta[B14,B11,0] delta[B14,B11,1] delta[B14,B12,0] delta[B14,B12,1]
 delta[B14,B13,0] delta[B14,B13,1] delta[B14,B15,0] delta[B14,B15,1]
 delta[B14,B16,0] delta[B14,B16,1] delta[B14,B17,0] delta[B14,B17,1]
 delta[B14,B18,0] delta[B14,B18,1] delta[B14,B19,0] delta[B14,B19,1]
 delta[B14,B20,0] delta[B14,B20,1] delta[B14,B21,0] delta[B14,B21,1]
 delta[B14,B22,0] delta[B14,B22,1] delta[B14,B23,0] delta[B14,B23,1]
 delta[B14,B24,0] delta[B14,B24,1] delta[B14,B25,0] delta[B14,B25,1]
 delta[B14,B26,0] delta[B14,B26,1] delta[B14,B27,0] delta[B14,B27,1]
 delta[B14,B28,0] delta[B14,B28,1] delta[B14,B29,0] delta[B14,B29,1]
 delta[B14,B30,0] delta[B14,B30,1] delta[B14,B31,0] delta[B14,B31,1]
 delta[B14,B32,0] delta[B14,B32,1] delta[B14,B33,0] delta[B14,B33,1]
 delta[B14,B34,0] delta[B14,B34,1] delta[B14,B35,0] delta[B14,B35,1]
 delta[B14,B36,0] delta[B14,B36,1] delta[B14,B37,0] delta[B14,B37,1]
 delta[B14,B38,0] delta[B14,B38,1] delta[B14,B39,0] delta[B14,B39,1]
 delta[B14,B40,0] delta[B14,B40,1] delta[B14,B41,0] delta[B14,B41,1]
 delta[B14,B42,0] delta[B14,B42,1] delta[B14,B43,0] delta[B14,B43,1]
 delta[B14,B44,0] delta[B14,B44,1] delta[B14,B45,0] delta[B14,B45,1]
 delta[B14,B46,0] delta[B14,B46,1] delta[B14,B47,0] delta[B14,B47,1]
 delta[B14,B48,0] delta[B14,B48,1] delta[B14,B49,0] delta[B14,B49,1]
 delta[B15,B0,0] delta[B15,B0,1] delta[B15,B1,0] delta[B15,B1,1]
 delta[B15,B2,0] delta[B15,B2,1] delta[B15,B3,0] delta[B15,B3,1]
 delta[B15,B4,0] delta[B15,B4,1] delta[B15,B5,0] delta[B15,B5,1]
 delta[B15,B6,0] delta[B15,B6,1] delta[B15,B7,0] delta[B15,B7,1]
 delta[B15,B8,0] delta[B15,B8,1] delta[B15,B9,0] delta[B15,B9,1]
 delta[B15,B10,0] delta[B15,B10,1] delta[B15,B11,0] delta[B15,B11,1]
 delta[B15,B12,0] delta[B15,B12,1] delta[B15,B13,0] delta[B15,B13,1]
 delta[B15,B14,0] delta[B15,B14,1] delta[B15,B16,0] delta[B15,B16,1]
 delta[B15,B17,0] delta[B15,B17,1] delta[B15,B18,0] delta[B15,B18,1]
 delta[B15,B19,0] delta[B15,B19,1] delta[B15,B20,0] delta[B15,B20,1]
 delta[B15,B21,0] delta[B15,B21,1] delta[B15,B22,0] delta[B15,B22,1]
 delta[B15,B23,0] delta[B15,B23,1] delta[B15,B24,0] delta[B15,B24,1]
 delta[B15,B25,0] delta[B15,B25,1] delta[B15,B26,0] delta[B15,B26,1]
 delta[B15,B27,0] delta[B15,B27,1] delta[B15,B28,0] delta[B15,B28,1]
 delta[B15,B29,0] delta[B15,B29,1] delta[B15,B30,0] delta[B15,B30,1]
 delta[B15,B31,0] delta[B15,B31,1] delta[B15,B32,0] delta[B15,B32,1]
 delta[B15,B33,0] delta[B15,B33,1] delta[B15,B34,0] delta[B15,B34,1]
 delta[B15,B35,0] delta[B15,B35,1] delta[B15,B36,0] delta[B15,B36,1]
 delta[B15,B37,0] delta[B15,B37,1] delta[B15,B38,0] delta[B15,B38,1]
 delta[B15,B39,0] delta[B15,B39,1] delta[B15,B40,0] delta[B15,B40,1]
 delta[B15,B41,0] delta[B15,B41,1] delta[B15,B42,0] delta[B15,B42,1]
 delta[B15,B43,0] delta[B15,B43,1] delta[B15,B44,0] delta[B15,B44,1]
 delta[B15,B45,0] delta[B15,B45,1] delta[B15,B46,0] delta[B15,B46,1]
 delta[B15,B47,0] delta[B15,B47,1] delta[B15,B48,0] delta[B15,B48,1]
 delta[B15,B49,0] delta[B15,B49,1] delta[B16,B0,0] delta[B16,B0,1]
 delta[B16,B1,0] delta[B16,B1,1] delta[B16,B2,0] delta[B16,B2,1]
 delta[B16,B3,0] delta[B16,B3,1] delta[B16,B4,0] delta[B16,B4,1]
 delta[B16,B5,0] delta[B16,B5,1] delta[B16,B6,0] delta[B16,B6,1]
 delta[B16,B7,0] delta[B16,B7,1] delta[B16,B8,0] delta[B16,B8,1]
 delta[B16,B9,0] delta[B16,B9,1] delta[B16,B10,0] delta[B16,B10,1]
 delta[B16,B11,0] delta[B16,B11,1] delta[B16,B12,0] delta[B16,B12,1]
 delta[B16,B13,0] delta[B16,B13,1] delta[B16,B14,0] delta[B16,B14,1]
 delta[B16,B15,0] delta[B16,B15,1] delta[B16,B17,0] delta[B16,B17,1]
 delta[B16,B18,0] delta[B16,B18,1] delta[B16,B19,0] delta[B16,B19,1]
 delta[B16,B20,0] delta[B16,B20,1] delta[B16,B21,0] delta[B16,B21,1]
 delta[B16,B22,0] delta[B16,B22,1] delta[B16,B23,0] delta[B16,B23,1]
 delta[B16,B24,0] delta[B16,B24,1] delta[B16,B25,0] delta[B16,B25,1]
 delta[B16,B26,0] delta[B16,B26,1] delta[B16,B27,0] delta[B16,B27,1]
 delta[B16,B28,0] delta[B16,B28,1] delta[B16,B29,0] delta[B16,B29,1]
 delta[B16,B30,0] delta[B16,B30,1] delta[B16,B31,0] delta[B16,B31,1]
 delta[B16,B32,0] delta[B16,B32,1] delta[B16,B33,0] delta[B16,B33,1]
 delta[B16,B34,0] delta[B16,B34,1] delta[B16,B35,0] delta[B16,B35,1]
 delta[B16,B36,0] delta[B16,B36,1] delta[B16,B37,0] delta[B16,B37,1]
 delta[B16,B38,0] delta[B16,B38,1] delta[B16,B39,0] delta[B16,B39,1]
 delta[B16,B40,0] delta[B16,B40,1] delta[B16,B41,0] delta[B16,B41,1]
 delta[B16,B42,0] delta[B16,B42,1] delta[B16,B43,0] delta[B16,B43,1]
 delta[B16,B44,0] delta[B16,B44,1] delta[B16,B45,0] delta[B16,B45,1]
 delta[B16,B46,0] delta[B16,B46,1] delta[B16,B47,0] delta[B16,B47,1]
 delta[B16,B48,0] delta[B16,B48,1] delta[B16,B49,0] delta[B16,B49,1]
 delta[B17,B0,0] delta[B17,B0,1] delta[B17,B1,0] delta[B17,B1,1]
 delta[B17,B2,0] delta[B17,B2,1] delta[B17,B3,0] delta[B17,B3,1]
 delta[B17,B4,0] delta[B17,B4,1] delta[B17,B5,0] delta[B17,B5,1]
 delta[B17,B6,0] delta[B17,B6,1] delta[B17,B7,0] delta[B17,B7,1]
 delta[B17,B8,0] delta[B17,B8,1] delta[B17,B9,0] delta[B17,B9,1]
 delta[B17,B10,0] delta[B17,B10,1] delta[B17,B11,0] delta[B17,B11,1]
 delta[B17,B12,0] delta[B17,B12,1] delta[B17,B13,0] delta[B17,B13,1]
 delta[B17,B14,0] delta[B17,B14,1] delta[B17,B15,0] delta[B17,B15,1]
 delta[B17,B16,0] delta[B17,B16,1] delta[B17,B18,0] delta[B17,B18,1]
 delta[B17,B19,0] delta[B17,B19,1] delta[B17,B20,0] delta[B17,B20,1]
 delta[B17,B21,0] delta[B17,B21,1] delta[B17,B22,0] delta[B17,B22,1]
 delta[B17,B23,0] delta[B17,B23,1] delta[B17,B24,0] delta[B17,B24,1]
 delta[B17,B25,0] delta[B17,B25,1] delta[B17,B26,0] delta[B17,B26,1]
 delta[B17,B27,0] delta[B17,B27,1] delta[B17,B28,0] delta[B17,B28,1]
 delta[B17,B29,0] delta[B17,B29,1] delta[B17,B30,0] delta[B17,B30,1]
 delta[B17,B31,0] delta[B17,B31,1] delta[B17,B32,0] delta[B17,B32,1]
 delta[B17,B33,0] delta[B17,B33,1] delta[B17,B34,0] delta[B17,B34,1]
 delta[B17,B35,0] delta[B17,B35,1] delta[B17,B36,0] delta[B17,B36,1]
 delta[B17,B37,0] delta[B17,B37,1] delta[B17,B38,0] delta[B17,B38,1]
 delta[B17,B39,0] delta[B17,B39,1] delta[B17,B40,0] delta[B17,B40,1]
 delta[B17,B41,0] delta[B17,B41,1] delta[B17,B42,0] delta[B17,B42,1]
 delta[B17,B43,0] delta[B17,B43,1] delta[B17,B44,0] delta[B17,B44,1]
 delta[B17,B45,0] delta[B17,B45,1] delta[B17,B46,0] delta[B17,B46,1]
 delta[B17,B47,0] delta[B17,B47,1] delta[B17,B48,0] delta[B17,B48,1]
 delta[B17,B49,0] delta[B17,B49,1] delta[B18,B0,0] delta[B18,B0,1]
 delta[B18,B1,0] delta[B18,B1,1] delta[B18,B2,0] delta[B18,B2,1]
 delta[B18,B3,0] delta[B18,B3,1] delta[B18,B4,0] delta[B18,B4,1]
 delta[B18,B5,0] delta[B18,B5,1] delta[B18,B6,0] delta[B18,B6,1]
 delta[B18,B7,0] delta[B18,B7,1] delta[B18,B8,0] delta[B18,B8,1]
 delta[B18,B9,0] delta[B18,B9,1] delta[B18,B10,0] delta[B18,B10,1]
 delta[B18,B11,0] delta[B18,B11,1] delta[B18,B12,0] delta[B18,B12,1]
 delta[B18,B13,0] delta[B18,B13,1] delta[B18,B14,0] delta[B18,B14,1]
 delta[B18,B15,0] delta[B18,B15,1] delta[B18,B16,0] delta[B18,B16,1]
 delta[B18,B17,0] delta[B18,B17,1] delta[B18,B19,0] delta[B18,B19,1]
 delta[B18,B20,0] delta[B18,B20,1] delta[B18,B21,0] delta[B18,B21,1]
 delta[B18,B22,0] delta[B18,B22,1] delta[B18,B23,0] delta[B18,B23,1]
 delta[B18,B24,0] delta[B18,B24,1] delta[B18,B25,0] delta[B18,B25,1]
 delta[B18,B26,0] delta[B18,B26,1] delta[B18,B27,0] delta[B18,B27,1]
 delta[B18,B28,0] delta[B18,B28,1] delta[B18,B29,0] delta[B18,B29,1]
 delta[B18,B30,0] delta[B18,B30,1] delta[B18,B31,0] delta[B18,B31,1]
 delta[B18,B32,0] delta[B18,B32,1] delta[B18,B33,0] delta[B18,B33,1]
 delta[B18,B34,0] delta[B18,B34,1] delta[B18,B35,0] delta[B18,B35,1]
 delta[B18,B36,0] delta[B18,B36,1] delta[B18,B37,0] delta[B18,B37,1]
 delta[B18,B38,0] delta[B18,B38,1] delta[B18,B39,0] delta[B18,B39,1]
 delta[B18,B40,0] delta[B18,B40,1] delta[B18,B41,0] delta[B18,B41,1]
 delta[B18,B42,0] delta[B18,B42,1] delta[B18,B43,0] delta[B18,B43,1]
 delta[B18,B44,0] delta[B18,B44,1] delta[B18,B45,0] delta[B18,B45,1]
 delta[B18,B46,0] delta[B18,B46,1] delta[B18,B47,0] delta[B18,B47,1]
 delta[B18,B48,0] delta[B18,B48,1] delta[B18,B49,0] delta[B18,B49,1]
 delta[B19,B0,0] delta[B19,B0,1] delta[B19,B1,0] delta[B19,B1,1]
 delta[B19,B2,0] delta[B19,B2,1] delta[B19,B3,0] delta[B19,B3,1]
 delta[B19,B4,0] delta[B19,B4,1] delta[B19,B5,0] delta[B19,B5,1]
 delta[B19,B6,0] delta[B19,B6,1] delta[B19,B7,0] delta[B19,B7,1]
 delta[B19,B8,0] delta[B19,B8,1] delta[B19,B9,0] delta[B19,B9,1]
 delta[B19,B10,0] delta[B19,B10,1] delta[B19,B11,0] delta[B19,B11,1]
 delta[B19,B12,0] delta[B19,B12,1] delta[B19,B13,0] delta[B19,B13,1]
 delta[B19,B14,0] delta[B19,B14,1] delta[B19,B15,0] delta[B19,B15,1]
 delta[B19,B16,0] delta[B19,B16,1] delta[B19,B17,0] delta[B19,B17,1]
 delta[B19,B18,0] delta[B19,B18,1] delta[B19,B20,0] delta[B19,B20,1]
 delta[B19,B21,0] delta[B19,B21,1] delta[B19,B22,0] delta[B19,B22,1]
 delta[B19,B23,0] delta[B19,B23,1] delta[B19,B24,0] delta[B19,B24,1]
 delta[B19,B25,0] delta[B19,B25,1] delta[B19,B26,0] delta[B19,B26,1]
 delta[B19,B27,0] delta[B19,B27,1] delta[B19,B28,0] delta[B19,B28,1]
 delta[B19,B29,0] delta[B19,B29,1] delta[B19,B30,0] delta[B19,B30,1]
 delta[B19,B31,0] delta[B19,B31,1] delta[B19,B32,0] delta[B19,B32,1]
 delta[B19,B33,0] delta[B19,B33,1] delta[B19,B34,0] delta[B19,B34,1]
 delta[B19,B35,0] delta[B19,B35,1] delta[B19,B36,0] delta[B19,B36,1]
 delta[B19,B37,0] delta[B19,B37,1] delta[B19,B38,0] delta[B19,B38,1]
 delta[B19,B39,0] delta[B19,B39,1] delta[B19,B40,0] delta[B19,B40,1]
 delta[B19,B41,0] delta[B19,B41,1] delta[B19,B42,0] delta[B19,B42,1]
 delta[B19,B43,0] delta[B19,B43,1] delta[B19,B44,0] delta[B19,B44,1]
 delta[B19,B45,0] delta[B19,B45,1] delta[B19,B46,0] delta[B19,B46,1]
 delta[B19,B47,0] delta[B19,B47,1] delta[B19,B48,0] delta[B19,B48,1]
 delta[B19,B49,0] delta[B19,B49,1] delta[B20,B0,0] delta[B20,B0,1]
 delta[B20,B1,0] delta[B20,B1,1] delta[B20,B2,0] delta[B20,B2,1]
 delta[B20,B3,0] delta[B20,B3,1] delta[B20,B4,0] delta[B20,B4,1]
 delta[B20,B5,0] delta[B20,B5,1] delta[B20,B6,0] delta[B20,B6,1]
 delta[B20,B7,0] delta[B20,B7,1] delta[B20,B8,0] delta[B20,B8,1]
 delta[B20,B9,0] delta[B20,B9,1] delta[B20,B10,0] delta[B20,B10,1]
 delta[B20,B11,0] delta[B20,B11,1] delta[B20,B12,0] delta[B20,B12,1]
 delta[B20,B13,0] delta[B20,B13,1] delta[B20,B14,0] delta[B20,B14,1]
 delta[B20,B15,0] delta[B20,B15,1] delta[B20,B16,0] delta[B20,B16,1]
 delta[B20,B17,0] delta[B20,B17,1] delta[B20,B18,0] delta[B20,B18,1]
 delta[B20,B19,0] delta[B20,B19,1] delta[B20,B21,0] delta[B20,B21,1]
 delta[B20,B22,0] delta[B20,B22,1] delta[B20,B23,0] delta[B20,B23,1]
 delta[B20,B24,0] delta[B20,B24,1] delta[B20,B25,0] delta[B20,B25,1]
 delta[B20,B26,0] delta[B20,B26,1] delta[B20,B27,0] delta[B20,B27,1]
 delta[B20,B28,0] delta[B20,B28,1] delta[B20,B29,0] delta[B20,B29,1]
 delta[B20,B30,0] delta[B20,B30,1] delta[B20,B31,0] delta[B20,B31,1]
 delta[B20,B32,0] delta[B20,B32,1] delta[B20,B33,0] delta[B20,B33,1]
 delta[B20,B34,0] delta[B20,B34,1] delta[B20,B35,0] delta[B20,B35,1]
 delta[B20,B36,0] delta[B20,B36,1] delta[B20,B37,0] delta[B20,B37,1]
 delta[B20,B38,0] delta[B20,B38,1] delta[B20,B39,0] delta[B20,B39,1]
 delta[B20,B40,0] delta[B20,B40,1] delta[B20,B41,0] delta[B20,B41,1]
 delta[B20,B42,0] delta[B20,B42,1] delta[B20,B43,0] delta[B20,B43,1]
 delta[B20,B44,0] delta[B20,B44,1] delta[B20,B45,0] delta[B20,B45,1]
 delta[B20,B46,0] delta[B20,B46,1] delta[B20,B47,0] delta[B20,B47,1]
 delta[B20,B48,0] delta[B20,B48,1] delta[B20,B49,0] delta[B20,B49,1]
 delta[B21,B0,0] delta[B21,B0,1] delta[B21,B1,0] delta[B21,B1,1]
 delta[B21,B2,0] delta[B21,B2,1] delta[B21,B3,0] delta[B21,B3,1]
 delta[B21,B4,0] delta[B21,B4,1] delta[B21,B5,0] delta[B21,B5,1]
 delta[B21,B6,0] delta[B21,B6,1] delta[B21,B7,0] delta[B21,B7,1]
 delta[B21,B8,0] delta[B21,B8,1] delta[B21,B9,0] delta[B21,B9,1]
 delta[B21,B10,0] delta[B21,B10,1] delta[B21,B11,0] delta[B21,B11,1]
 delta[B21,B12,0] delta[B21,B12,1] delta[B21,B13,0] delta[B21,B13,1]
 delta[B21,B14,0] delta[B21,B14,1] delta[B21,B15,0] delta[B21,B15,1]
 delta[B21,B16,0] delta[B21,B16,1] delta[B21,B17,0] delta[B21,B17,1]
 delta[B21,B18,0] delta[B21,B18,1] delta[B21,B19,0] delta[B21,B19,1]
 delta[B21,B20,0] delta[B21,B20,1] delta[B21,B22,0] delta[B21,B22,1]
 delta[B21,B23,0] delta[B21,B23,1] delta[B21,B24,0] delta[B21,B24,1]
 delta[B21,B25,0] delta[B21,B25,1] delta[B21,B26,0] delta[B21,B26,1]
 delta[B21,B27,0] delta[B21,B27,1] delta[B21,B28,0] delta[B21,B28,1]
 delta[B21,B29,0] delta[B21,B29,1] delta[B21,B30,0] delta[B21,B30,1]
 delta[B21,B31,0] delta[B21,B31,1] delta[B21,B32,0] delta[B21,B32,1]
 delta[B21,B33,0] delta[B21,B33,1] delta[B21,B34,0] delta[B21,B34,1]
 delta[B21,B35,0] delta[B21,B35,1] delta[B21,B36,0] delta[B21,B36,1]
 delta[B21,B37,0] delta[B21,B37,1] delta[B21,B38,0] delta[B21,B38,1]
 delta[B21,B39,0] delta[B21,B39,1] delta[B21,B40,0] delta[B21,B40,1]
 delta[B21,B41,0] delta[B21,B41,1] delta[B21,B42,0] delta[B21,B42,1]
 delta[B21,B43,0] delta[B21,B43,1] delta[B21,B44,0] delta[B21,B44,1]
 delta[B21,B45,0] delta[B21,B45,1] delta[B21,B46,0] delta[B21,B46,1]
 delta[B21,B47,0] delta[B21,B47,1] delta[B21,B48,0] delta[B21,B48,1]
 delta[B21,B49,0] delta[B21,B49,1] delta[B22,B0,0] delta[B22,B0,1]
 delta[B22,B1,0] delta[B22,B1,1] delta[B22,B2,0] delta[B22,B2,1]
 delta[B22,B3,0] delta[B22,B3,1] delta[B22,B4,0] delta[B22,B4,1]
 delta[B22,B5,0] delta[B22,B5,1] delta[B22,B6,0] delta[B22,B6,1]
 delta[B22,B7,0] delta[B22,B7,1] delta[B22,B8,0] delta[B22,B8,1]
 delta[B22,B9,0] delta[B22,B9,1] delta[B22,B10,0] delta[B22,B10,1]
 delta[B22,B11,0] delta[B22,B11,1] delta[B22,B12,0] delta[B22,B12,1]
 delta[B22,B13,0] delta[B22,B13,1] delta[B22,B14,0] delta[B22,B14,1]
 delta[B22,B15,0] delta[B22,B15,1] delta[B22,B16,0] delta[B22,B16,1]
 delta[B22,B17,0] delta[B22,B17,1] delta[B22,B18,0] delta[B22,B18,1]
 delta[B22,B19,0] delta[B22,B19,1] delta[B22,B20,0] delta[B22,B20,1]
 delta[B22,B21,0] delta[B22,B21,1] delta[B22,B23,0] delta[B22,B23,1]
 delta[B22,B24,0] delta[B22,B24,1] delta[B22,B25,0] delta[B22,B25,1]
 delta[B22,B26,0] delta[B22,B26,1] delta[B22,B27,0] delta[B22,B27,1]
 delta[B22,B28,0] delta[B22,B28,1] delta[B22,B29,0] delta[B22,B29,1]
 delta[B22,B30,0] delta[B22,B30,1] delta[B22,B31,0] delta[B22,B31,1]
 delta[B22,B32,0] delta[B22,B32,1] delta[B22,B33,0] delta[B22,B33,1]
 delta[B22,B34,0] delta[B22,B34,1] delta[B22,B35,0] delta[B22,B35,1]
 delta[B22,B36,0] delta[B22,B36,1] delta[B22,B37,0] delta[B22,B37,1]
 delta[B22,B38,0] delta[B22,B38,1] delta[B22,B39,0] delta[B22,B39,1]
 delta[B22,B40,0] delta[B22,B40,1] delta[B22,B41,0] delta[B22,B41,1]
 delta[B22,B42,0] delta[B22,B42,1] delta[B22,B43,0] delta[B22,B43,1]
 delta[B22,B44,0] delta[B22,B44,1] delta[B22,B45,0] delta[B22,B45,1]
 delta[B22,B46,0] delta[B22,B46,1] delta[B22,B47,0] delta[B22,B47,1]
 delta[B22,B48,0] delta[B22,B48,1] delta[B22,B49,0] delta[B22,B49,1]
 delta[B23,B0,0] delta[B23,B0,1] delta[B23,B1,0] delta[B23,B1,1]
 delta[B23,B2,0] delta[B23,B2,1] delta[B23,B3,0] delta[B23,B3,1]
 delta[B23,B4,0] delta[B23,B4,1] delta[B23,B5,0] delta[B23,B5,1]
 delta[B23,B6,0] delta[B23,B6,1] delta[B23,B7,0] delta[B23,B7,1]
 delta[B23,B8,0] delta[B23,B8,1] delta[B23,B9,0] delta[B23,B9,1]
 delta[B23,B10,0] delta[B23,B10,1] delta[B23,B11,0] delta[B23,B11,1]
 delta[B23,B12,0] delta[B23,B12,1] delta[B23,B13,0] delta[B23,B13,1]
 delta[B23,B14,0] delta[B23,B14,1] delta[B23,B15,0] delta[B23,B15,1]
 delta[B23,B16,0] delta[B23,B16,1] delta[B23,B17,0] delta[B23,B17,1]
 delta[B23,B18,0] delta[B23,B18,1] delta[B23,B19,0] delta[B23,B19,1]
 delta[B23,B20,0] delta[B23,B20,1] delta[B23,B21,0] delta[B23,B21,1]
 delta[B23,B22,0] delta[B23,B22,1] delta[B23,B24,0] delta[B23,B24,1]
 delta[B23,B25,0] delta[B23,B25,1] delta[B23,B26,0] delta[B23,B26,1]
 delta[B23,B27,0] delta[B23,B27,1] delta[B23,B28,0] delta[B23,B28,1]
 delta[B23,B29,0] delta[B23,B29,1] delta[B23,B30,0] delta[B23,B30,1]
 delta[B23,B31,0] delta[B23,B31,1] delta[B23,B32,0] delta[B23,B32,1]
 delta[B23,B33,0] delta[B23,B33,1] delta[B23,B34,0] delta[B23,B34,1]
 delta[B23,B35,0] delta[B23,B35,1] delta[B23,B36,0] delta[B23,B36,1]
 delta[B23,B37,0] delta[B23,B37,1] delta[B23,B38,0] delta[B23,B38,1]
 delta[B23,B39,0] delta[B23,B39,1] delta[B23,B40,0] delta[B23,B40,1]
 delta[B23,B41,0] delta[B23,B41,1] delta[B23,B42,0] delta[B23,B42,1]
 delta[B23,B43,0] delta[B23,B43,1] delta[B23,B44,0] delta[B23,B44,1]
 delta[B23,B45,0] delta[B23,B45,1] delta[B23,B46,0] delta[B23,B46,1]
 delta[B23,B47,0] delta[B23,B47,1] delta[B23,B48,0] delta[B23,B48,1]
 delta[B23,B49,0] delta[B23,B49,1] delta[B24,B0,0] delta[B24,B0,1]
 delta[B24,B1,0] delta[B24,B1,1] delta[B24,B2,0] delta[B24,B2,1]
 delta[B24,B3,0] delta[B24,B3,1] delta[B24,B4,0] delta[B24,B4,1]
 delta[B24,B5,0] delta[B24,B5,1] delta[B24,B6,0] delta[B24,B6,1]
 delta[B24,B7,0] delta[B24,B7,1] delta[B24,B8,0] delta[B24,B8,1]
 delta[B24,B9,0] delta[B24,B9,1] delta[B24,B10,0] delta[B24,B10,1]
 delta[B24,B11,0] delta[B24,B11,1] delta[B24,B12,0] delta[B24,B12,1]
 delta[B24,B13,0] delta[B24,B13,1] delta[B24,B14,0] delta[B24,B14,1]
 delta[B24,B15,0] delta[B24,B15,1] delta[B24,B16,0] delta[B24,B16,1]
 delta[B24,B17,0] delta[B24,B17,1] delta[B24,B18,0] delta[B24,B18,1]
 delta[B24,B19,0] delta[B24,B19,1] delta[B24,B20,0] delta[B24,B20,1]
 delta[B24,B21,0] delta[B24,B21,1] delta[B24,B22,0] delta[B24,B22,1]
 delta[B24,B23,0] delta[B24,B23,1] delta[B24,B25,0] delta[B24,B25,1]
 delta[B24,B26,0] delta[B24,B26,1] delta[B24,B27,0] delta[B24,B27,1]
 delta[B24,B28,0] delta[B24,B28,1] delta[B24,B29,0] delta[B24,B29,1]
 delta[B24,B30,0] delta[B24,B30,1] delta[B24,B31,0] delta[B24,B31,1]
 delta[B24,B32,0] delta[B24,B32,1] delta[B24,B33,0] delta[B24,B33,1]
 delta[B24,B34,0] delta[B24,B34,1] delta[B24,B35,0] delta[B24,B35,1]
 delta[B24,B36,0] delta[B24,B36,1] delta[B24,B37,0] delta[B24,B37,1]
 delta[B24,B38,0] delta[B24,B38,1] delta[B24,B39,0] delta[B24,B39,1]
 delta[B24,B40,0] delta[B24,B40,1] delta[B24,B41,0] delta[B24,B41,1]
 delta[B24,B42,0] delta[B24,B42,1] delta[B24,B43,0] delta[B24,B43,1]
 delta[B24,B44,0] delta[B24,B44,1] delta[B24,B45,0] delta[B24,B45,1]
 delta[B24,B46,0] delta[B24,B46,1] delta[B24,B47,0] delta[B24,B47,1]
 delta[B24,B48,0] delta[B24,B48,1] delta[B24,B49,0] delta[B24,B49,1]
 delta[B25,B0,0] delta[B25,B0,1] delta[B25,B1,0] delta[B25,B1,1]
 delta[B25,B2,0] delta[B25,B2,1] delta[B25,B3,0] delta[B25,B3,1]
 delta[B25,B4,0] delta[B25,B4,1] delta[B25,B5,0] delta[B25,B5,1]
 delta[B25,B6,0] delta[B25,B6,1] delta[B25,B7,0] delta[B25,B7,1]
 delta[B25,B8,0] delta[B25,B8,1] delta[B25,B9,0] delta[B25,B9,1]
 delta[B25,B10,0] delta[B25,B10,1] delta[B25,B11,0] delta[B25,B11,1]
 delta[B25,B12,0] delta[B25,B12,1] delta[B25,B13,0] delta[B25,B13,1]
 delta[B25,B14,0] delta[B25,B14,1] delta[B25,B15,0] delta[B25,B15,1]
 delta[B25,B16,0] delta[B25,B16,1] delta[B25,B17,0] delta[B25,B17,1]
 delta[B25,B18,0] delta[B25,B18,1] delta[B25,B19,0] delta[B25,B19,1]
 delta[B25,B20,0] delta[B25,B20,1] delta[B25,B21,0] delta[B25,B21,1]
 delta[B25,B22,0] delta[B25,B22,1] delta[B25,B23,0] delta[B25,B23,1]
 delta[B25,B24,0] delta[B25,B24,1] delta[B25,B26,0] delta[B25,B26,1]
 delta[B25,B27,0] delta[B25,B27,1] delta[B25,B28,0] delta[B25,B28,1]
 delta[B25,B29,0] delta[B25,B29,1] delta[B25,B30,0] delta[B25,B30,1]
 delta[B25,B31,0] delta[B25,B31,1] delta[B25,B32,0] delta[B25,B32,1]
 delta[B25,B33,0] delta[B25,B33,1] delta[B25,B34,0] delta[B25,B34,1]
 delta[B25,B35,0] delta[B25,B35,1] delta[B25,B36,0] delta[B25,B36,1]
 delta[B25,B37,0] delta[B25,B37,1] delta[B25,B38,0] delta[B25,B38,1]
 delta[B25,B39,0] delta[B25,B39,1] delta[B25,B40,0] delta[B25,B40,1]
 delta[B25,B41,0] delta[B25,B41,1] delta[B25,B42,0] delta[B25,B42,1]
 delta[B25,B43,0] delta[B25,B43,1] delta[B25,B44,0] delta[B25,B44,1]
 delta[B25,B45,0] delta[B25,B45,1] delta[B25,B46,0] delta[B25,B46,1]
 delta[B25,B47,0] delta[B25,B47,1] delta[B25,B48,0] delta[B25,B48,1]
 delta[B25,B49,0] delta[B25,B49,1] delta[B26,B0,0] delta[B26,B0,1]
 delta[B26,B1,0] delta[B26,B1,1] delta[B26,B2,0] delta[B26,B2,1]
 delta[B26,B3,0] delta[B26,B3,1] delta[B26,B4,0] delta[B26,B4,1]
 delta[B26,B5,0] delta[B26,B5,1] delta[B26,B6,0] delta[B26,B6,1]
 delta[B26,B7,0] delta[B26,B7,1] delta[B26,B8,0] delta[B26,B8,1]
 delta[B26,B9,0] delta[B26,B9,1] delta[B26,B10,0] delta[B26,B10,1]
 delta[B26,B11,0] delta[B26,B11,1] delta[B26,B12,0] delta[B26,B12,1]
 delta[B26,B13,0] delta[B26,B13,1] delta[B26,B14,0] delta[B26,B14,1]
 delta[B26,B15,0] delta[B26,B15,1] delta[B26,B16,0] delta[B26,B16,1]
 delta[B26,B17,0] delta[B26,B17,1] delta[B26,B18,0] delta[B26,B18,1]
 delta[B26,B19,0] delta[B26,B19,1] delta[B26,B20,0] delta[B26,B20,1]
 delta[B26,B21,0] delta[B26,B21,1] delta[B26,B22,0] delta[B26,B22,1]
 delta[B26,B23,0] delta[B26,B23,1] delta[B26,B24,0] delta[B26,B24,1]
 delta[B26,B25,0] delta[B26,B25,1] delta[B26,B27,0] delta[B26,B27,1]
 delta[B26,B28,0] delta[B26,B28,1] delta[B26,B29,0] delta[B26,B29,1]
 delta[B26,B30,0] delta[B26,B30,1] delta[B26,B31,0] delta[B26,B31,1]
 delta[B26,B32,0] delta[B26,B32,1] delta[B26,B33,0] delta[B26,B33,1]
 delta[B26,B34,0] delta[B26,B34,1] delta[B26,B35,0] delta[B26,B35,1]
 delta[B26,B36,0] delta[B26,B36,1] delta[B26,B37,0] delta[B26,B37,1]
 delta[B26,B38,0] delta[B26,B38,1] delta[B26,B39,0] delta[B26,B39,1]
 delta[B26,B40,0] delta[B26,B40,1] delta[B26,B41,0] delta[B26,B41,1]
 delta[B26,B42,0] delta[B26,B42,1] delta[B26,B43,0] delta[B26,B43,1]
 delta[B26,B44,0] delta[B26,B44,1] delta[B26,B45,0] delta[B26,B45,1]
 delta[B26,B46,0] delta[B26,B46,1] delta[B26,B47,0] delta[B26,B47,1]
 delta[B26,B48,0] delta[B26,B48,1] delta[B26,B49,0] delta[B26,B49,1]
 delta[B27,B0,0] delta[B27,B0,1] delta[B27,B1,0] delta[B27,B1,1]
 delta[B27,B2,0] delta[B27,B2,1] delta[B27,B3,0] delta[B27,B3,1]
 delta[B27,B4,0] delta[B27,B4,1] delta[B27,B5,0] delta[B27,B5,1]
 delta[B27,B6,0] delta[B27,B6,1] delta[B27,B7,0] delta[B27,B7,1]
 delta[B27,B8,0] delta[B27,B8,1] delta[B27,B9,0] delta[B27,B9,1]
 delta[B27,B10,0] delta[B27,B10,1] delta[B27,B11,0] delta[B27,B11,1]
 delta[B27,B12,0] delta[B27,B12,1] delta[B27,B13,0] delta[B27,B13,1]
 delta[B27,B14,0] delta[B27,B14,1] delta[B27,B15,0] delta[B27,B15,1]
 delta[B27,B16,0] delta[B27,B16,1] delta[B27,B17,0] delta[B27,B17,1]
 delta[B27,B18,0] delta[B27,B18,1] delta[B27,B19,0] delta[B27,B19,1]
 delta[B27,B20,0] delta[B27,B20,1] delta[B27,B21,0] delta[B27,B21,1]
 delta[B27,B22,0] delta[B27,B22,1] delta[B27,B23,0] delta[B27,B23,1]
 delta[B27,B24,0] delta[B27,B24,1] delta[B27,B25,0] delta[B27,B25,1]
 delta[B27,B26,0] delta[B27,B26,1] delta[B27,B28,0] delta[B27,B28,1]
 delta[B27,B29,0] delta[B27,B29,1] delta[B27,B30,0] delta[B27,B30,1]
 delta[B27,B31,0] delta[B27,B31,1] delta[B27,B32,0] delta[B27,B32,1]
 delta[B27,B33,0] delta[B27,B33,1] delta[B27,B34,0] delta[B27,B34,1]
 delta[B27,B35,0] delta[B27,B35,1] delta[B27,B36,0] delta[B27,B36,1]
 delta[B27,B37,0] delta[B27,B37,1] delta[B27,B38,0] delta[B27,B38,1]
 delta[B27,B39,0] delta[B27,B39,1] delta[B27,B40,0] delta[B27,B40,1]
 delta[B27,B41,0] delta[B27,B41,1] delta[B27,B42,0] delta[B27,B42,1]
 delta[B27,B43,0] delta[B27,B43,1] delta[B27,B44,0] delta[B27,B44,1]
 delta[B27,B45,0] delta[B27,B45,1] delta[B27,B46,0] delta[B27,B46,1]
 delta[B27,B47,0] delta[B27,B47,1] delta[B27,B48,0] delta[B27,B48,1]
 delta[B27,B49,0] delta[B27,B49,1] delta[B28,B0,0] delta[B28,B0,1]
 delta[B28,B1,0] delta[B28,B1,1] delta[B28,B2,0] delta[B28,B2,1]
 delta[B28,B3,0] delta[B28,B3,1] delta[B28,B4,0] delta[B28,B4,1]
 delta[B28,B5,0] delta[B28,B5,1] delta[B28,B6,0] delta[B28,B6,1]
 delta[B28,B7,0] delta[B28,B7,1] delta[B28,B8,0] delta[B28,B8,1]
 delta[B28,B9,0] delta[B28,B9,1] delta[B28,B10,0] delta[B28,B10,1]
 delta[B28,B11,0] delta[B28,B11,1] delta[B28,B12,0] delta[B28,B12,1]
 delta[B28,B13,0] delta[B28,B13,1] delta[B28,B14,0] delta[B28,B14,1]
 delta[B28,B15,0] delta[B28,B15,1] delta[B28,B16,0] delta[B28,B16,1]
 delta[B28,B17,0] delta[B28,B17,1] delta[B28,B18,0] delta[B28,B18,1]
 delta[B28,B19,0] delta[B28,B19,1] delta[B28,B20,0] delta[B28,B20,1]
 delta[B28,B21,0] delta[B28,B21,1] delta[B28,B22,0] delta[B28,B22,1]
 delta[B28,B23,0] delta[B28,B23,1] delta[B28,B24,0] delta[B28,B24,1]
 delta[B28,B25,0] delta[B28,B25,1] delta[B28,B26,0] delta[B28,B26,1]
 delta[B28,B27,0] delta[B28,B27,1] delta[B28,B29,0] delta[B28,B29,1]
 delta[B28,B30,0] delta[B28,B30,1] delta[B28,B31,0] delta[B28,B31,1]
 delta[B28,B32,0] delta[B28,B32,1] delta[B28,B33,0] delta[B28,B33,1]
 delta[B28,B34,0] delta[B28,B34,1] delta[B28,B35,0] delta[B28,B35,1]
 delta[B28,B36,0] delta[B28,B36,1] delta[B28,B37,0] delta[B28,B37,1]
 delta[B28,B38,0] delta[B28,B38,1] delta[B28,B39,0] delta[B28,B39,1]
 delta[B28,B40,0] delta[B28,B40,1] delta[B28,B41,0] delta[B28,B41,1]
 delta[B28,B42,0] delta[B28,B42,1] delta[B28,B43,0] delta[B28,B43,1]
 delta[B28,B44,0] delta[B28,B44,1] delta[B28,B45,0] delta[B28,B45,1]
 delta[B28,B46,0] delta[B28,B46,1] delta[B28,B47,0] delta[B28,B47,1]
 delta[B28,B48,0] delta[B28,B48,1] delta[B28,B49,0] delta[B28,B49,1]
 delta[B29,B0,0] delta[B29,B0,1] delta[B29,B1,0] delta[B29,B1,1]
 delta[B29,B2,0] delta[B29,B2,1] delta[B29,B3,0] delta[B29,B3,1]
 delta[B29,B4,0] delta[B29,B4,1] delta[B29,B5,0] delta[B29,B5,1]
 delta[B29,B6,0] delta[B29,B6,1] delta[B29,B7,0] delta[B29,B7,1]
 delta[B29,B8,0] delta[B29,B8,1] delta[B29,B9,0] delta[B29,B9,1]
 delta[B29,B10,0] delta[B29,B10,1] delta[B29,B11,0] delta[B29,B11,1]
 delta[B29,B12,0] delta[B29,B12,1] delta[B29,B13,0] delta[B29,B13,1]
 delta[B29,B14,0] delta[B29,B14,1] delta[B29,B15,0] delta[B29,B15,1]
 delta[B29,B16,0] delta[B29,B16,1] delta[B29,B17,0] delta[B29,B17,1]
 delta[B29,B18,0] delta[B29,B18,1] delta[B29,B19,0] delta[B29,B19,1]
 delta[B29,B20,0] delta[B29,B20,1] delta[B29,B21,0] delta[B29,B21,1]
 delta[B29,B22,0] delta[B29,B22,1] delta[B29,B23,0] delta[B29,B23,1]
 delta[B29,B24,0] delta[B29,B24,1] delta[B29,B25,0] delta[B29,B25,1]
 delta[B29,B26,0] delta[B29,B26,1] delta[B29,B27,0] delta[B29,B27,1]
 delta[B29,B28,0] delta[B29,B28,1] delta[B29,B30,0] delta[B29,B30,1]
 delta[B29,B31,0] delta[B29,B31,1] delta[B29,B32,0] delta[B29,B32,1]
 delta[B29,B33,0] delta[B29,B33,1] delta[B29,B34,0] delta[B29,B34,1]
 delta[B29,B35,0] delta[B29,B35,1] delta[B29,B36,0] delta[B29,B36,1]
 delta[B29,B37,0] delta[B29,B37,1] delta[B29,B38,0] delta[B29,B38,1]
 delta[B29,B39,0] delta[B29,B39,1] delta[B29,B40,0] delta[B29,B40,1]
 delta[B29,B41,0] delta[B29,B41,1] delta[B29,B42,0] delta[B29,B42,1]
 delta[B29,B43,0] delta[B29,B43,1] delta[B29,B44,0] delta[B29,B44,1]
 delta[B29,B45,0] delta[B29,B45,1] delta[B29,B46,0] delta[B29,B46,1]
 delta[B29,B47,0] delta[B29,B47,1] delta[B29,B48,0] delta[B29,B48,1]
 delta[B29,B49,0] delta[B29,B49,1] delta[B30,B0,0] delta[B30,B0,1]
 delta[B30,B1,0] delta[B30,B1,1] delta[B30,B2,0] delta[B30,B2,1]
 delta[B30,B3,0] delta[B30,B3,1] delta[B30,B4,0] delta[B30,B4,1]
 delta[B30,B5,0] delta[B30,B5,1] delta[B30,B6,0] delta[B30,B6,1]
 delta[B30,B7,0] delta[B30,B7,1] delta[B30,B8,0] delta[B30,B8,1]
 delta[B30,B9,0] delta[B30,B9,1] delta[B30,B10,0] delta[B30,B10,1]
 delta[B30,B11,0] delta[B30,B11,1] delta[B30,B12,0] delta[B30,B12,1]
 delta[B30,B13,0] delta[B30,B13,1] delta[B30,B14,0] delta[B30,B14,1]
 delta[B30,B15,0] delta[B30,B15,1] delta[B30,B16,0] delta[B30,B16,1]
 delta[B30,B17,0] delta[B30,B17,1] delta[B30,B18,0] delta[B30,B18,1]
 delta[B30,B19,0] delta[B30,B19,1] delta[B30,B20,0] delta[B30,B20,1]
 delta[B30,B21,0] delta[B30,B21,1] delta[B30,B22,0] delta[B30,B22,1]
 delta[B30,B23,0] delta[B30,B23,1] delta[B30,B24,0] delta[B30,B24,1]
 delta[B30,B25,0] delta[B30,B25,1] delta[B30,B26,0] delta[B30,B26,1]
 delta[B30,B27,0] delta[B30,B27,1] delta[B30,B28,0] delta[B30,B28,1]
 delta[B30,B29,0] delta[B30,B29,1] delta[B30,B31,0] delta[B30,B31,1]
 delta[B30,B32,0] delta[B30,B32,1] delta[B30,B33,0] delta[B30,B33,1]
 delta[B30,B34,0] delta[B30,B34,1] delta[B30,B35,0] delta[B30,B35,1]
 delta[B30,B36,0] delta[B30,B36,1] delta[B30,B37,0] delta[B30,B37,1]
 delta[B30,B38,0] delta[B30,B38,1] delta[B30,B39,0] delta[B30,B39,1]
 delta[B30,B40,0] delta[B30,B40,1] delta[B30,B41,0] delta[B30,B41,1]
 delta[B30,B42,0] delta[B30,B42,1] delta[B30,B43,0] delta[B30,B43,1]
 delta[B30,B44,0] delta[B30,B44,1] delta[B30,B45,0] delta[B30,B45,1]
 delta[B30,B46,0] delta[B30,B46,1] delta[B30,B47,0] delta[B30,B47,1]
 delta[B30,B48,0] delta[B30,B48,1] delta[B30,B49,0] delta[B30,B49,1]
 delta[B31,B0,0] delta[B31,B0,1] delta[B31,B1,0] delta[B31,B1,1]
 delta[B31,B2,0] delta[B31,B2,1] delta[B31,B3,0] delta[B31,B3,1]
 delta[B31,B4,0] delta[B31,B4,1] delta[B31,B5,0] delta[B31,B5,1]
 delta[B31,B6,0] delta[B31,B6,1] delta[B31,B7,0] delta[B31,B7,1]
 delta[B31,B8,0] delta[B31,B8,1] delta[B31,B9,0] delta[B31,B9,1]
 delta[B31,B10,0] delta[B31,B10,1] delta[B31,B11,0] delta[B31,B11,1]
 delta[B31,B12,0] delta[B31,B12,1] delta[B31,B13,0] delta[B31,B13,1]
 delta[B31,B14,0] delta[B31,B14,1] delta[B31,B15,0] delta[B31,B15,1]
 delta[B31,B16,0] delta[B31,B16,1] delta[B31,B17,0] delta[B31,B17,1]
 delta[B31,B18,0] delta[B31,B18,1] delta[B31,B19,0] delta[B31,B19,1]
 delta[B31,B20,0] delta[B31,B20,1] delta[B31,B21,0] delta[B31,B21,1]
 delta[B31,B22,0] delta[B31,B22,1] delta[B31,B23,0] delta[B31,B23,1]
 delta[B31,B24,0] delta[B31,B24,1] delta[B31,B25,0] delta[B31,B25,1]
 delta[B31,B26,0] delta[B31,B26,1] delta[B31,B27,0] delta[B31,B27,1]
 delta[B31,B28,0] delta[B31,B28,1] delta[B31,B29,0] delta[B31,B29,1]
 delta[B31,B30,0] delta[B31,B30,1] delta[B31,B32,0] delta[B31,B32,1]
 delta[B31,B33,0] delta[B31,B33,1] delta[B31,B34,0] delta[B31,B34,1]
 delta[B31,B35,0] delta[B31,B35,1] delta[B31,B36,0] delta[B31,B36,1]
 delta[B31,B37,0] delta[B31,B37,1] delta[B31,B38,0] delta[B31,B38,1]
 delta[B31,B39,0] delta[B31,B39,1] delta[B31,B40,0] delta[B31,B40,1]
 delta[B31,B41,0] delta[B31,B41,1] delta[B31,B42,0] delta[B31,B42,1]
 delta[B31,B43,0] delta[B31,B43,1] delta[B31,B44,0] delta[B31,B44,1]
 delta[B31,B45,0] delta[B31,B45,1] delta[B31,B46,0] delta[B31,B46,1]
 delta[B31,B47,0] delta[B31,B47,1] delta[B31,B48,0] delta[B31,B48,1]
 delta[B31,B49,0] delta[B31,B49,1] delta[B32,B0,0] delta[B32,B0,1]
 delta[B32,B1,0] delta[B32,B1,1] delta[B32,B2,0] delta[B32,B2,1]
 delta[B32,B3,0] delta[B32,B3,1] delta[B32,B4,0] delta[B32,B4,1]
 delta[B32,B5,0] delta[B32,B5,1] delta[B32,B6,0] delta[B32,B6,1]
 delta[B32,B7,0] delta[B32,B7,1] delta[B32,B8,0] delta[B32,B8,1]
 delta[B32,B9,0] delta[B32,B9,1] delta[B32,B10,0] delta[B32,B10,1]
 delta[B32,B11,0] delta[B32,B11,1] delta[B32,B12,0] delta[B32,B12,1]
 delta[B32,B13,0] delta[B32,B13,1] delta[B32,B14,0] delta[B32,B14,1]
 delta[B32,B15,0] delta[B32,B15,1] delta[B32,B16,0] delta[B32,B16,1]
 delta[B32,B17,0] delta[B32,B17,1] delta[B32,B18,0] delta[B32,B18,1]
 delta[B32,B19,0] delta[B32,B19,1] delta[B32,B20,0] delta[B32,B20,1]
 delta[B32,B21,0] delta[B32,B21,1] delta[B32,B22,0] delta[B32,B22,1]
 delta[B32,B23,0] delta[B32,B23,1] delta[B32,B24,0] delta[B32,B24,1]
 delta[B32,B25,0] delta[B32,B25,1] delta[B32,B26,0] delta[B32,B26,1]
 delta[B32,B27,0] delta[B32,B27,1] delta[B32,B28,0] delta[B32,B28,1]
 delta[B32,B29,0] delta[B32,B29,1] delta[B32,B30,0] delta[B32,B30,1]
 delta[B32,B31,0] delta[B32,B31,1] delta[B32,B33,0] delta[B32,B33,1]
 delta[B32,B34,0] delta[B32,B34,1] delta[B32,B35,0] delta[B32,B35,1]
 delta[B32,B36,0] delta[B32,B36,1] delta[B32,B37,0] delta[B32,B37,1]
 delta[B32,B38,0] delta[B32,B38,1] delta[B32,B39,0] delta[B32,B39,1]
 delta[B32,B40,0] delta[B32,B40,1] delta[B32,B41,0] delta[B32,B41,1]
 delta[B32,B42,0] delta[B32,B42,1] delta[B32,B43,0] delta[B32,B43,1]
 delta[B32,B44,0] delta[B32,B44,1] delta[B32,B45,0] delta[B32,B45,1]
 delta[B32,B46,0] delta[B32,B46,1] delta[B32,B47,0] delta[B32,B47,1]
 delta[B32,B48,0] delta[B32,B48,1] delta[B32,B49,0] delta[B32,B49,1]
 delta[B33,B0,0] delta[B33,B0,1] delta[B33,B1,0] delta[B33,B1,1]
 delta[B33,B2,0] delta[B33,B2,1] delta[B33,B3,0] delta[B33,B3,1]
 delta[B33,B4,0] delta[B33,B4,1] delta[B33,B5,0] delta[B33,B5,1]
 delta[B33,B6,0] delta[B33,B6,1] delta[B33,B7,0] delta[B33,B7,1]
 delta[B33,B8,0] delta[B33,B8,1] delta[B33,B9,0] delta[B33,B9,1]
 delta[B33,B10,0] delta[B33,B10,1] delta[B33,B11,0] delta[B33,B11,1]
 delta[B33,B12,0] delta[B33,B12,1] delta[B33,B13,0] delta[B33,B13,1]
 delta[B33,B14,0] delta[B33,B14,1] delta[B33,B15,0] delta[B33,B15,1]
 delta[B33,B16,0] delta[B33,B16,1] delta[B33,B17,0] delta[B33,B17,1]
 delta[B33,B18,0] delta[B33,B18,1] delta[B33,B19,0] delta[B33,B19,1]
 delta[B33,B20,0] delta[B33,B20,1] delta[B33,B21,0] delta[B33,B21,1]
 delta[B33,B22,0] delta[B33,B22,1] delta[B33,B23,0] delta[B33,B23,1]
 delta[B33,B24,0] delta[B33,B24,1] delta[B33,B25,0] delta[B33,B25,1]
 delta[B33,B26,0] delta[B33,B26,1] delta[B33,B27,0] delta[B33,B27,1]
 delta[B33,B28,0] delta[B33,B28,1] delta[B33,B29,0] delta[B33,B29,1]
 delta[B33,B30,0] delta[B33,B30,1] delta[B33,B31,0] delta[B33,B31,1]
 delta[B33,B32,0] delta[B33,B32,1] delta[B33,B34,0] delta[B33,B34,1]
 delta[B33,B35,0] delta[B33,B35,1] delta[B33,B36,0] delta[B33,B36,1]
 delta[B33,B37,0] delta[B33,B37,1] delta[B33,B38,0] delta[B33,B38,1]
 delta[B33,B39,0] delta[B33,B39,1] delta[B33,B40,0] delta[B33,B40,1]
 delta[B33,B41,0] delta[B33,B41,1] delta[B33,B42,0] delta[B33,B42,1]
 delta[B33,B43,0] delta[B33,B43,1] delta[B33,B44,0] delta[B33,B44,1]
 delta[B33,B45,0] delta[B33,B45,1] delta[B33,B46,0] delta[B33,B46,1]
 delta[B33,B47,0] delta[B33,B47,1] delta[B33,B48,0] delta[B33,B48,1]
 delta[B33,B49,0] delta[B33,B49,1] delta[B34,B0,0] delta[B34,B0,1]
 delta[B34,B1,0] delta[B34,B1,1] delta[B34,B2,0] delta[B34,B2,1]
 delta[B34,B3,0] delta[B34,B3,1] delta[B34,B4,0] delta[B34,B4,1]
 delta[B34,B5,0] delta[B34,B5,1] delta[B34,B6,0] delta[B34,B6,1]
 delta[B34,B7,0] delta[B34,B7,1] delta[B34,B8,0] delta[B34,B8,1]
 delta[B34,B9,0] delta[B34,B9,1] delta[B34,B10,0] delta[B34,B10,1]
 delta[B34,B11,0] delta[B34,B11,1] delta[B34,B12,0] delta[B34,B12,1]
 delta[B34,B13,0] delta[B34,B13,1] delta[B34,B14,0] delta[B34,B14,1]
 delta[B34,B15,0] delta[B34,B15,1] delta[B34,B16,0] delta[B34,B16,1]
 delta[B34,B17,0] delta[B34,B17,1] delta[B34,B18,0] delta[B34,B18,1]
 delta[B34,B19,0] delta[B34,B19,1] delta[B34,B20,0] delta[B34,B20,1]
 delta[B34,B21,0] delta[B34,B21,1] delta[B34,B22,0] delta[B34,B22,1]
 delta[B34,B23,0] delta[B34,B23,1] delta[B34,B24,0] delta[B34,B24,1]
 delta[B34,B25,0] delta[B34,B25,1] delta[B34,B26,0] delta[B34,B26,1]
 delta[B34,B27,0] delta[B34,B27,1] delta[B34,B28,0] delta[B34,B28,1]
 delta[B34,B29,0] delta[B34,B29,1] delta[B34,B30,0] delta[B34,B30,1]
 delta[B34,B31,0] delta[B34,B31,1] delta[B34,B32,0] delta[B34,B32,1]
 delta[B34,B33,0] delta[B34,B33,1] delta[B34,B35,0] delta[B34,B35,1]
 delta[B34,B36,0] delta[B34,B36,1] delta[B34,B37,0] delta[B34,B37,1]
 delta[B34,B38,0] delta[B34,B38,1] delta[B34,B39,0] delta[B34,B39,1]
 delta[B34,B40,0] delta[B34,B40,1] delta[B34,B41,0] delta[B34,B41,1]
 delta[B34,B42,0] delta[B34,B42,1] delta[B34,B43,0] delta[B34,B43,1]
 delta[B34,B44,0] delta[B34,B44,1] delta[B34,B45,0] delta[B34,B45,1]
 delta[B34,B46,0] delta[B34,B46,1] delta[B34,B47,0] delta[B34,B47,1]
 delta[B34,B48,0] delta[B34,B48,1] delta[B34,B49,0] delta[B34,B49,1]
 delta[B35,B0,0] delta[B35,B0,1] delta[B35,B1,0] delta[B35,B1,1]
 delta[B35,B2,0] delta[B35,B2,1] delta[B35,B3,0] delta[B35,B3,1]
 delta[B35,B4,0] delta[B35,B4,1] delta[B35,B5,0] delta[B35,B5,1]
 delta[B35,B6,0] delta[B35,B6,1] delta[B35,B7,0] delta[B35,B7,1]
 delta[B35,B8,0] delta[B35,B8,1] delta[B35,B9,0] delta[B35,B9,1]
 delta[B35,B10,0] delta[B35,B10,1] delta[B35,B11,0] delta[B35,B11,1]
 delta[B35,B12,0] delta[B35,B12,1] delta[B35,B13,0] delta[B35,B13,1]
 delta[B35,B14,0] delta[B35,B14,1] delta[B35,B15,0] delta[B35,B15,1]
 delta[B35,B16,0] delta[B35,B16,1] delta[B35,B17,0] delta[B35,B17,1]
 delta[B35,B18,0] delta[B35,B18,1] delta[B35,B19,0] delta[B35,B19,1]
 delta[B35,B20,0] delta[B35,B20,1] delta[B35,B21,0] delta[B35,B21,1]
 delta[B35,B22,0] delta[B35,B22,1] delta[B35,B23,0] delta[B35,B23,1]
 delta[B35,B24,0] delta[B35,B24,1] delta[B35,B25,0] delta[B35,B25,1]
 delta[B35,B26,0] delta[B35,B26,1] delta[B35,B27,0] delta[B35,B27,1]
 delta[B35,B28,0] delta[B35,B28,1] delta[B35,B29,0] delta[B35,B29,1]
 delta[B35,B30,0] delta[B35,B30,1] delta[B35,B31,0] delta[B35,B31,1]
 delta[B35,B32,0] delta[B35,B32,1] delta[B35,B33,0] delta[B35,B33,1]
 delta[B35,B34,0] delta[B35,B34,1] delta[B35,B36,0] delta[B35,B36,1]
 delta[B35,B37,0] delta[B35,B37,1] delta[B35,B38,0] delta[B35,B38,1]
 delta[B35,B39,0] delta[B35,B39,1] delta[B35,B40,0] delta[B35,B40,1]
 delta[B35,B41,0] delta[B35,B41,1] delta[B35,B42,0] delta[B35,B42,1]
 delta[B35,B43,0] delta[B35,B43,1] delta[B35,B44,0] delta[B35,B44,1]
 delta[B35,B45,0] delta[B35,B45,1] delta[B35,B46,0] delta[B35,B46,1]
 delta[B35,B47,0] delta[B35,B47,1] delta[B35,B48,0] delta[B35,B48,1]
 delta[B35,B49,0] delta[B35,B49,1] delta[B36,B0,0] delta[B36,B0,1]
 delta[B36,B1,0] delta[B36,B1,1] delta[B36,B2,0] delta[B36,B2,1]
 delta[B36,B3,0] delta[B36,B3,1] delta[B36,B4,0] delta[B36,B4,1]
 delta[B36,B5,0] delta[B36,B5,1] delta[B36,B6,0] delta[B36,B6,1]
 delta[B36,B7,0] delta[B36,B7,1] delta[B36,B8,0] delta[B36,B8,1]
 delta[B36,B9,0] delta[B36,B9,1] delta[B36,B10,0] delta[B36,B10,1]
 delta[B36,B11,0] delta[B36,B11,1] delta[B36,B12,0] delta[B36,B12,1]
 delta[B36,B13,0] delta[B36,B13,1] delta[B36,B14,0] delta[B36,B14,1]
 delta[B36,B15,0] delta[B36,B15,1] delta[B36,B16,0] delta[B36,B16,1]
 delta[B36,B17,0] delta[B36,B17,1] delta[B36,B18,0] delta[B36,B18,1]
 delta[B36,B19,0] delta[B36,B19,1] delta[B36,B20,0] delta[B36,B20,1]
 delta[B36,B21,0] delta[B36,B21,1] delta[B36,B22,0] delta[B36,B22,1]
 delta[B36,B23,0] delta[B36,B23,1] delta[B36,B24,0] delta[B36,B24,1]
 delta[B36,B25,0] delta[B36,B25,1] delta[B36,B26,0] delta[B36,B26,1]
 delta[B36,B27,0] delta[B36,B27,1] delta[B36,B28,0] delta[B36,B28,1]
 delta[B36,B29,0] delta[B36,B29,1] delta[B36,B30,0] delta[B36,B30,1]
 delta[B36,B31,0] delta[B36,B31,1] delta[B36,B32,0] delta[B36,B32,1]
 delta[B36,B33,0] delta[B36,B33,1] delta[B36,B34,0] delta[B36,B34,1]
 delta[B36,B35,0] delta[B36,B35,1] delta[B36,B37,0] delta[B36,B37,1]
 delta[B36,B38,0] delta[B36,B38,1] delta[B36,B39,0] delta[B36,B39,1]
 delta[B36,B40,0] delta[B36,B40,1] delta[B36,B41,0] delta[B36,B41,1]
 delta[B36,B42,0] delta[B36,B42,1] delta[B36,B43,0] delta[B36,B43,1]
 delta[B36,B44,0] delta[B36,B44,1] delta[B36,B45,0] delta[B36,B45,1]
 delta[B36,B46,0] delta[B36,B46,1] delta[B36,B47,0] delta[B36,B47,1]
 delta[B36,B48,0] delta[B36,B48,1] delta[B36,B49,0] delta[B36,B49,1]
 delta[B37,B0,0] delta[B37,B0,1] delta[B37,B1,0] delta[B37,B1,1]
 delta[B37,B2,0] delta[B37,B2,1] delta[B37,B3,0] delta[B37,B3,1]
 delta[B37,B4,0] delta[B37,B4,1] delta[B37,B5,0] delta[B37,B5,1]
 delta[B37,B6,0] delta[B37,B6,1] delta[B37,B7,0] delta[B37,B7,1]
 delta[B37,B8,0] delta[B37,B8,1] delta[B37,B9,0] delta[B37,B9,1]
 delta[B37,B10,0] delta[B37,B10,1] delta[B37,B11,0] delta[B37,B11,1]
 delta[B37,B12,0] delta[B37,B12,1] delta[B37,B13,0] delta[B37,B13,1]
 delta[B37,B14,0] delta[B37,B14,1] delta[B37,B15,0] delta[B37,B15,1]
 delta[B37,B16,0] delta[B37,B16,1] delta[B37,B17,0] delta[B37,B17,1]
 delta[B37,B18,0] delta[B37,B18,1] delta[B37,B19,0] delta[B37,B19,1]
 delta[B37,B20,0] delta[B37,B20,1] delta[B37,B21,0] delta[B37,B21,1]
 delta[B37,B22,0] delta[B37,B22,1] delta[B37,B23,0] delta[B37,B23,1]
 delta[B37,B24,0] delta[B37,B24,1] delta[B37,B25,0] delta[B37,B25,1]
 delta[B37,B26,0] delta[B37,B26,1] delta[B37,B27,0] delta[B37,B27,1]
 delta[B37,B28,0] delta[B37,B28,1] delta[B37,B29,0] delta[B37,B29,1]
 delta[B37,B30,0] delta[B37,B30,1] delta[B37,B31,0] delta[B37,B31,1]
 delta[B37,B32,0] delta[B37,B32,1] delta[B37,B33,0] delta[B37,B33,1]
 delta[B37,B34,0] delta[B37,B34,1] delta[B37,B35,0] delta[B37,B35,1]
 delta[B37,B36,0] delta[B37,B36,1] delta[B37,B38,0] delta[B37,B38,1]
 delta[B37,B39,0] delta[B37,B39,1] delta[B37,B40,0] delta[B37,B40,1]
 delta[B37,B41,0] delta[B37,B41,1] delta[B37,B42,0] delta[B37,B42,1]
 delta[B37,B43,0] delta[B37,B43,1] delta[B37,B44,0] delta[B37,B44,1]
 delta[B37,B45,0] delta[B37,B45,1] delta[B37,B46,0] delta[B37,B46,1]
 delta[B37,B47,0] delta[B37,B47,1] delta[B37,B48,0] delta[B37,B48,1]
 delta[B37,B49,0] delta[B37,B49,1] delta[B38,B0,0] delta[B38,B0,1]
 delta[B38,B1,0] delta[B38,B1,1] delta[B38,B2,0] delta[B38,B2,1]
 delta[B38,B3,0] delta[B38,B3,1] delta[B38,B4,0] delta[B38,B4,1]
 delta[B38,B5,0] delta[B38,B5,1] delta[B38,B6,0] delta[B38,B6,1]
 delta[B38,B7,0] delta[B38,B7,1] delta[B38,B8,0] delta[B38,B8,1]
 delta[B38,B9,0] delta[B38,B9,1] delta[B38,B10,0] delta[B38,B10,1]
 delta[B38,B11,0] delta[B38,B11,1] delta[B38,B12,0] delta[B38,B12,1]
 delta[B38,B13,0] delta[B38,B13,1] delta[B38,B14,0] delta[B38,B14,1]
 delta[B38,B15,0] delta[B38,B15,1] delta[B38,B16,0] delta[B38,B16,1]
 delta[B38,B17,0] delta[B38,B17,1] delta[B38,B18,0] delta[B38,B18,1]
 delta[B38,B19,0] delta[B38,B19,1] delta[B38,B20,0] delta[B38,B20,1]
 delta[B38,B21,0] delta[B38,B21,1] delta[B38,B22,0] delta[B38,B22,1]
 delta[B38,B23,0] delta[B38,B23,1] delta[B38,B24,0] delta[B38,B24,1]
 delta[B38,B25,0] delta[B38,B25,1] delta[B38,B26,0] delta[B38,B26,1]
 delta[B38,B27,0] delta[B38,B27,1] delta[B38,B28,0] delta[B38,B28,1]
 delta[B38,B29,0] delta[B38,B29,1] delta[B38,B30,0] delta[B38,B30,1]
 delta[B38,B31,0] delta[B38,B31,1] delta[B38,B32,0] delta[B38,B32,1]
 delta[B38,B33,0] delta[B38,B33,1] delta[B38,B34,0] delta[B38,B34,1]
 delta[B38,B35,0] delta[B38,B35,1] delta[B38,B36,0] delta[B38,B36,1]
 delta[B38,B37,0] delta[B38,B37,1] delta[B38,B39,0] delta[B38,B39,1]
 delta[B38,B40,0] delta[B38,B40,1] delta[B38,B41,0] delta[B38,B41,1]
 delta[B38,B42,0] delta[B38,B42,1] delta[B38,B43,0] delta[B38,B43,1]
 delta[B38,B44,0] delta[B38,B44,1] delta[B38,B45,0] delta[B38,B45,1]
 delta[B38,B46,0] delta[B38,B46,1] delta[B38,B47,0] delta[B38,B47,1]
 delta[B38,B48,0] delta[B38,B48,1] delta[B38,B49,0] delta[B38,B49,1]
 delta[B39,B0,0] delta[B39,B0,1] delta[B39,B1,0] delta[B39,B1,1]
 delta[B39,B2,0] delta[B39,B2,1] delta[B39,B3,0] delta[B39,B3,1]
 delta[B39,B4,0] delta[B39,B4,1] delta[B39,B5,0] delta[B39,B5,1]
 delta[B39,B6,0] delta[B39,B6,1] delta[B39,B7,0] delta[B39,B7,1]
 delta[B39,B8,0] delta[B39,B8,1] delta[B39,B9,0] delta[B39,B9,1]
 delta[B39,B10,0] delta[B39,B10,1] delta[B39,B11,0] delta[B39,B11,1]
 delta[B39,B12,0] delta[B39,B12,1] delta[B39,B13,0] delta[B39,B13,1]
 delta[B39,B14,0] delta[B39,B14,1] delta[B39,B15,0] delta[B39,B15,1]
 delta[B39,B16,0] delta[B39,B16,1] delta[B39,B17,0] delta[B39,B17,1]
 delta[B39,B18,0] delta[B39,B18,1] delta[B39,B19,0] delta[B39,B19,1]
 delta[B39,B20,0] delta[B39,B20,1] delta[B39,B21,0] delta[B39,B21,1]
 delta[B39,B22,0] delta[B39,B22,1] delta[B39,B23,0] delta[B39,B23,1]
 delta[B39,B24,0] delta[B39,B24,1] delta[B39,B25,0] delta[B39,B25,1]
 delta[B39,B26,0] delta[B39,B26,1] delta[B39,B27,0] delta[B39,B27,1]
 delta[B39,B28,0] delta[B39,B28,1] delta[B39,B29,0] delta[B39,B29,1]
 delta[B39,B30,0] delta[B39,B30,1] delta[B39,B31,0] delta[B39,B31,1]
 delta[B39,B32,0] delta[B39,B32,1] delta[B39,B33,0] delta[B39,B33,1]
 delta[B39,B34,0] delta[B39,B34,1] delta[B39,B35,0] delta[B39,B35,1]
 delta[B39,B36,0] delta[B39,B36,1] delta[B39,B37,0] delta[B39,B37,1]
 delta[B39,B38,0] delta[B39,B38,1] delta[B39,B40,0] delta[B39,B40,1]
 delta[B39,B41,0] delta[B39,B41,1] delta[B39,B42,0] delta[B39,B42,1]
 delta[B39,B43,0] delta[B39,B43,1] delta[B39,B44,0] delta[B39,B44,1]
 delta[B39,B45,0] delta[B39,B45,1] delta[B39,B46,0] delta[B39,B46,1]
 delta[B39,B47,0] delta[B39,B47,1] delta[B39,B48,0] delta[B39,B48,1]
 delta[B39,B49,0] delta[B39,B49,1] delta[B40,B0,0] delta[B40,B0,1]
 delta[B40,B1,0] delta[B40,B1,1] delta[B40,B2,0] delta[B40,B2,1]
 delta[B40,B3,0] delta[B40,B3,1] delta[B40,B4,0] delta[B40,B4,1]
 delta[B40,B5,0] delta[B40,B5,1] delta[B40,B6,0] delta[B40,B6,1]
 delta[B40,B7,0] delta[B40,B7,1] delta[B40,B8,0] delta[B40,B8,1]
 delta[B40,B9,0] delta[B40,B9,1] delta[B40,B10,0] delta[B40,B10,1]
 delta[B40,B11,0] delta[B40,B11,1] delta[B40,B12,0] delta[B40,B12,1]
 delta[B40,B13,0] delta[B40,B13,1] delta[B40,B14,0] delta[B40,B14,1]
 delta[B40,B15,0] delta[B40,B15,1] delta[B40,B16,0] delta[B40,B16,1]
 delta[B40,B17,0] delta[B40,B17,1] delta[B40,B18,0] delta[B40,B18,1]
 delta[B40,B19,0] delta[B40,B19,1] delta[B40,B20,0] delta[B40,B20,1]
 delta[B40,B21,0] delta[B40,B21,1] delta[B40,B22,0] delta[B40,B22,1]
 delta[B40,B23,0] delta[B40,B23,1] delta[B40,B24,0] delta[B40,B24,1]
 delta[B40,B25,0] delta[B40,B25,1] delta[B40,B26,0] delta[B40,B26,1]
 delta[B40,B27,0] delta[B40,B27,1] delta[B40,B28,0] delta[B40,B28,1]
 delta[B40,B29,0] delta[B40,B29,1] delta[B40,B30,0] delta[B40,B30,1]
 delta[B40,B31,0] delta[B40,B31,1] delta[B40,B32,0] delta[B40,B32,1]
 delta[B40,B33,0] delta[B40,B33,1] delta[B40,B34,0] delta[B40,B34,1]
 delta[B40,B35,0] delta[B40,B35,1] delta[B40,B36,0] delta[B40,B36,1]
 delta[B40,B37,0] delta[B40,B37,1] delta[B40,B38,0] delta[B40,B38,1]
 delta[B40,B39,0] delta[B40,B39,1] delta[B40,B41,0] delta[B40,B41,1]
 delta[B40,B42,0] delta[B40,B42,1] delta[B40,B43,0] delta[B40,B43,1]
 delta[B40,B44,0] delta[B40,B44,1] delta[B40,B45,0] delta[B40,B45,1]
 delta[B40,B46,0] delta[B40,B46,1] delta[B40,B47,0] delta[B40,B47,1]
 delta[B40,B48,0] delta[B40,B48,1] delta[B40,B49,0] delta[B40,B49,1]
 delta[B41,B0,0] delta[B41,B0,1] delta[B41,B1,0] delta[B41,B1,1]
 delta[B41,B2,0] delta[B41,B2,1] delta[B41,B3,0] delta[B41,B3,1]
 delta[B41,B4,0] delta[B41,B4,1] delta[B41,B5,0] delta[B41,B5,1]
 delta[B41,B6,0] delta[B41,B6,1] delta[B41,B7,0] delta[B41,B7,1]
 delta[B41,B8,0] delta[B41,B8,1] delta[B41,B9,0] delta[B41,B9,1]
 delta[B41,B10,0] delta[B41,B10,1] delta[B41,B11,0] delta[B41,B11,1]
 delta[B41,B12,0] delta[B41,B12,1] delta[B41,B13,0] delta[B41,B13,1]
 delta[B41,B14,0] delta[B41,B14,1] delta[B41,B15,0] delta[B41,B15,1]
 delta[B41,B16,0] delta[B41,B16,1] delta[B41,B17,0] delta[B41,B17,1]
 delta[B41,B18,0] delta[B41,B18,1] delta[B41,B19,0] delta[B41,B19,1]
 delta[B41,B20,0] delta[B41,B20,1] delta[B41,B21,0] delta[B41,B21,1]
 delta[B41,B22,0] delta[B41,B22,1] delta[B41,B23,0] delta[B41,B23,1]
 delta[B41,B24,0] delta[B41,B24,1] delta[B41,B25,0] delta[B41,B25,1]
 delta[B41,B26,0] delta[B41,B26,1] delta[B41,B27,0] delta[B41,B27,1]
 delta[B41,B28,0] delta[B41,B28,1] delta[B41,B29,0] delta[B41,B29,1]
 delta[B41,B30,0] delta[B41,B30,1] delta[B41,B31,0] delta[B41,B31,1]
 delta[B41,B32,0] delta[B41,B32,1] delta[B41,B33,0] delta[B41,B33,1]
 delta[B41,B34,0] delta[B41,B34,1] delta[B41,B35,0] delta[B41,B35,1]
 delta[B41,B36,0] delta[B41,B36,1] delta[B41,B37,0] delta[B41,B37,1]
 delta[B41,B38,0] delta[B41,B38,1] delta[B41,B39,0] delta[B41,B39,1]
 delta[B41,B40,0] delta[B41,B40,1] delta[B41,B42,0] delta[B41,B42,1]
 delta[B41,B43,0] delta[B41,B43,1] delta[B41,B44,0] delta[B41,B44,1]
 delta[B41,B45,0] delta[B41,B45,1] delta[B41,B46,0] delta[B41,B46,1]
 delta[B41,B47,0] delta[B41,B47,1] delta[B41,B48,0] delta[B41,B48,1]
 delta[B41,B49,0] delta[B41,B49,1] delta[B42,B0,0] delta[B42,B0,1]
 delta[B42,B1,0] delta[B42,B1,1] delta[B42,B2,0] delta[B42,B2,1]
 delta[B42,B3,0] delta[B42,B3,1] delta[B42,B4,0] delta[B42,B4,1]
 delta[B42,B5,0] delta[B42,B5,1] delta[B42,B6,0] delta[B42,B6,1]
 delta[B42,B7,0] delta[B42,B7,1] delta[B42,B8,0] delta[B42,B8,1]
 delta[B42,B9,0] delta[B42,B9,1] delta[B42,B10,0] delta[B42,B10,1]
 delta[B42,B11,0] delta[B42,B11,1] delta[B42,B12,0] delta[B42,B12,1]
 delta[B42,B13,0] delta[B42,B13,1] delta[B42,B14,0] delta[B42,B14,1]
 delta[B42,B15,0] delta[B42,B15,1] delta[B42,B16,0] delta[B42,B16,1]
 delta[B42,B17,0] delta[B42,B17,1] delta[B42,B18,0] delta[B42,B18,1]
 delta[B42,B19,0] delta[B42,B19,1] delta[B42,B20,0] delta[B42,B20,1]
 delta[B42,B21,0] delta[B42,B21,1] delta[B42,B22,0] delta[B42,B22,1]
 delta[B42,B23,0] delta[B42,B23,1] delta[B42,B24,0] delta[B42,B24,1]
 delta[B42,B25,0] delta[B42,B25,1] delta[B42,B26,0] delta[B42,B26,1]
 delta[B42,B27,0] delta[B42,B27,1] delta[B42,B28,0] delta[B42,B28,1]
 delta[B42,B29,0] delta[B42,B29,1] delta[B42,B30,0] delta[B42,B30,1]
 delta[B42,B31,0] delta[B42,B31,1] delta[B42,B32,0] delta[B42,B32,1]
 delta[B42,B33,0] delta[B42,B33,1] delta[B42,B34,0] delta[B42,B34,1]
 delta[B42,B35,0] delta[B42,B35,1] delta[B42,B36,0] delta[B42,B36,1]
 delta[B42,B37,0] delta[B42,B37,1] delta[B42,B38,0] delta[B42,B38,1]
 delta[B42,B39,0] delta[B42,B39,1] delta[B42,B40,0] delta[B42,B40,1]
 delta[B42,B41,0] delta[B42,B41,1] delta[B42,B43,0] delta[B42,B43,1]
 delta[B42,B44,0] delta[B42,B44,1] delta[B42,B45,0] delta[B42,B45,1]
 delta[B42,B46,0] delta[B42,B46,1] delta[B42,B47,0] delta[B42,B47,1]
 delta[B42,B48,0] delta[B42,B48,1] delta[B42,B49,0] delta[B42,B49,1]
 delta[B43,B0,0] delta[B43,B0,1] delta[B43,B1,0] delta[B43,B1,1]
 delta[B43,B2,0] delta[B43,B2,1] delta[B43,B3,0] delta[B43,B3,1]
 delta[B43,B4,0] delta[B43,B4,1] delta[B43,B5,0] delta[B43,B5,1]
 delta[B43,B6,0] delta[B43,B6,1] delta[B43,B7,0] delta[B43,B7,1]
 delta[B43,B8,0] delta[B43,B8,1] delta[B43,B9,0] delta[B43,B9,1]
 delta[B43,B10,0] delta[B43,B10,1] delta[B43,B11,0] delta[B43,B11,1]
 delta[B43,B12,0] delta[B43,B12,1] delta[B43,B13,0] delta[B43,B13,1]
 delta[B43,B14,0] delta[B43,B14,1] delta[B43,B15,0] delta[B43,B15,1]
 delta[B43,B16,0] delta[B43,B16,1] delta[B43,B17,0] delta[B43,B17,1]
 delta[B43,B18,0] delta[B43,B18,1] delta[B43,B19,0] delta[B43,B19,1]
 delta[B43,B20,0] delta[B43,B20,1] delta[B43,B21,0] delta[B43,B21,1]
 delta[B43,B22,0] delta[B43,B22,1] delta[B43,B23,0] delta[B43,B23,1]
 delta[B43,B24,0] delta[B43,B24,1] delta[B43,B25,0] delta[B43,B25,1]
 delta[B43,B26,0] delta[B43,B26,1] delta[B43,B27,0] delta[B43,B27,1]
 delta[B43,B28,0] delta[B43,B28,1] delta[B43,B29,0] delta[B43,B29,1]
 delta[B43,B30,0] delta[B43,B30,1] delta[B43,B31,0] delta[B43,B31,1]
 delta[B43,B32,0] delta[B43,B32,1] delta[B43,B33,0] delta[B43,B33,1]
 delta[B43,B34,0] delta[B43,B34,1] delta[B43,B35,0] delta[B43,B35,1]
 delta[B43,B36,0] delta[B43,B36,1] delta[B43,B37,0] delta[B43,B37,1]
 delta[B43,B38,0] delta[B43,B38,1] delta[B43,B39,0] delta[B43,B39,1]
 delta[B43,B40,0] delta[B43,B40,1] delta[B43,B41,0] delta[B43,B41,1]
 delta[B43,B42,0] delta[B43,B42,1] delta[B43,B44,0] delta[B43,B44,1]
 delta[B43,B45,0] delta[B43,B45,1] delta[B43,B46,0] delta[B43,B46,1]
 delta[B43,B47,0] delta[B43,B47,1] delta[B43,B48,0] delta[B43,B48,1]
 delta[B43,B49,0] delta[B43,B49,1] delta[B44,B0,0] delta[B44,B0,1]
 delta[B44,B1,0] delta[B44,B1,1] delta[B44,B2,0] delta[B44,B2,1]
 delta[B44,B3,0] delta[B44,B3,1] delta[B44,B4,0] delta[B44,B4,1]
 delta[B44,B5,0] delta[B44,B5,1] delta[B44,B6,0] delta[B44,B6,1]
 delta[B44,B7,0] delta[B44,B7,1] delta[B44,B8,0] delta[B44,B8,1]
 delta[B44,B9,0] delta[B44,B9,1] delta[B44,B10,0] delta[B44,B10,1]
 delta[B44,B11,0] delta[B44,B11,1] delta[B44,B12,0] delta[B44,B12,1]
 delta[B44,B13,0] delta[B44,B13,1] delta[B44,B14,0] delta[B44,B14,1]
 delta[B44,B15,0] delta[B44,B15,1] delta[B44,B16,0] delta[B44,B16,1]
 delta[B44,B17,0] delta[B44,B17,1] delta[B44,B18,0] delta[B44,B18,1]
 delta[B44,B19,0] delta[B44,B19,1] delta[B44,B20,0] delta[B44,B20,1]
 delta[B44,B21,0] delta[B44,B21,1] delta[B44,B22,0] delta[B44,B22,1]
 delta[B44,B23,0] delta[B44,B23,1] delta[B44,B24,0] delta[B44,B24,1]
 delta[B44,B25,0] delta[B44,B25,1] delta[B44,B26,0] delta[B44,B26,1]
 delta[B44,B27,0] delta[B44,B27,1] delta[B44,B28,0] delta[B44,B28,1]
 delta[B44,B29,0] delta[B44,B29,1] delta[B44,B30,0] delta[B44,B30,1]
 delta[B44,B31,0] delta[B44,B31,1] delta[B44,B32,0] delta[B44,B32,1]
 delta[B44,B33,0] delta[B44,B33,1] delta[B44,B34,0] delta[B44,B34,1]
 delta[B44,B35,0] delta[B44,B35,1] delta[B44,B36,0] delta[B44,B36,1]
 delta[B44,B37,0] delta[B44,B37,1] delta[B44,B38,0] delta[B44,B38,1]
 delta[B44,B39,0] delta[B44,B39,1] delta[B44,B40,0] delta[B44,B40,1]
 delta[B44,B41,0] delta[B44,B41,1] delta[B44,B42,0] delta[B44,B42,1]
 delta[B44,B43,0] delta[B44,B43,1] delta[B44,B45,0] delta[B44,B45,1]
 delta[B44,B46,0] delta[B44,B46,1] delta[B44,B47,0] delta[B44,B47,1]
 delta[B44,B48,0] delta[B44,B48,1] delta[B44,B49,0] delta[B44,B49,1]
 delta[B45,B0,0] delta[B45,B0,1] delta[B45,B1,0] delta[B45,B1,1]
 delta[B45,B2,0] delta[B45,B2,1] delta[B45,B3,0] delta[B45,B3,1]
 delta[B45,B4,0] delta[B45,B4,1] delta[B45,B5,0] delta[B45,B5,1]
 delta[B45,B6,0] delta[B45,B6,1] delta[B45,B7,0] delta[B45,B7,1]
 delta[B45,B8,0] delta[B45,B8,1] delta[B45,B9,0] delta[B45,B9,1]
 delta[B45,B10,0] delta[B45,B10,1] delta[B45,B11,0] delta[B45,B11,1]
 delta[B45,B12,0] delta[B45,B12,1] delta[B45,B13,0] delta[B45,B13,1]
 delta[B45,B14,0] delta[B45,B14,1] delta[B45,B15,0] delta[B45,B15,1]
 delta[B45,B16,0] delta[B45,B16,1] delta[B45,B17,0] delta[B45,B17,1]
 delta[B45,B18,0] delta[B45,B18,1] delta[B45,B19,0] delta[B45,B19,1]
 delta[B45,B20,0] delta[B45,B20,1] delta[B45,B21,0] delta[B45,B21,1]
 delta[B45,B22,0] delta[B45,B22,1] delta[B45,B23,0] delta[B45,B23,1]
 delta[B45,B24,0] delta[B45,B24,1] delta[B45,B25,0] delta[B45,B25,1]
 delta[B45,B26,0] delta[B45,B26,1] delta[B45,B27,0] delta[B45,B27,1]
 delta[B45,B28,0] delta[B45,B28,1] delta[B45,B29,0] delta[B45,B29,1]
 delta[B45,B30,0] delta[B45,B30,1] delta[B45,B31,0] delta[B45,B31,1]
 delta[B45,B32,0] delta[B45,B32,1] delta[B45,B33,0] delta[B45,B33,1]
 delta[B45,B34,0] delta[B45,B34,1] delta[B45,B35,0] delta[B45,B35,1]
 delta[B45,B36,0] delta[B45,B36,1] delta[B45,B37,0] delta[B45,B37,1]
 delta[B45,B38,0] delta[B45,B38,1] delta[B45,B39,0] delta[B45,B39,1]
 delta[B45,B40,0] delta[B45,B40,1] delta[B45,B41,0] delta[B45,B41,1]
 delta[B45,B42,0] delta[B45,B42,1] delta[B45,B43,0] delta[B45,B43,1]
 delta[B45,B44,0] delta[B45,B44,1] delta[B45,B46,0] delta[B45,B46,1]
 delta[B45,B47,0] delta[B45,B47,1] delta[B45,B48,0] delta[B45,B48,1]
 delta[B45,B49,0] delta[B45,B49,1] delta[B46,B0,0] delta[B46,B0,1]
 delta[B46,B1,0] delta[B46,B1,1] delta[B46,B2,0] delta[B46,B2,1]
 delta[B46,B3,0] delta[B46,B3,1] delta[B46,B4,0] delta[B46,B4,1]
 delta[B46,B5,0] delta[B46,B5,1] delta[B46,B6,0] delta[B46,B6,1]
 delta[B46,B7,0] delta[B46,B7,1] delta[B46,B8,0] delta[B46,B8,1]
 delta[B46,B9,0] delta[B46,B9,1] delta[B46,B10,0] delta[B46,B10,1]
 delta[B46,B11,0] delta[B46,B11,1] delta[B46,B12,0] delta[B46,B12,1]
 delta[B46,B13,0] delta[B46,B13,1] delta[B46,B14,0] delta[B46,B14,1]
 delta[B46,B15,0] delta[B46,B15,1] delta[B46,B16,0] delta[B46,B16,1]
 delta[B46,B17,0] delta[B46,B17,1] delta[B46,B18,0] delta[B46,B18,1]
 delta[B46,B19,0] delta[B46,B19,1] delta[B46,B20,0] delta[B46,B20,1]
 delta[B46,B21,0] delta[B46,B21,1] delta[B46,B22,0] delta[B46,B22,1]
 delta[B46,B23,0] delta[B46,B23,1] delta[B46,B24,0] delta[B46,B24,1]
 delta[B46,B25,0] delta[B46,B25,1] delta[B46,B26,0] delta[B46,B26,1]
 delta[B46,B27,0] delta[B46,B27,1] delta[B46,B28,0] delta[B46,B28,1]
 delta[B46,B29,0] delta[B46,B29,1] delta[B46,B30,0] delta[B46,B30,1]
 delta[B46,B31,0] delta[B46,B31,1] delta[B46,B32,0] delta[B46,B32,1]
 delta[B46,B33,0] delta[B46,B33,1] delta[B46,B34,0] delta[B46,B34,1]
 delta[B46,B35,0] delta[B46,B35,1] delta[B46,B36,0] delta[B46,B36,1]
 delta[B46,B37,0] delta[B46,B37,1] delta[B46,B38,0] delta[B46,B38,1]
 delta[B46,B39,0] delta[B46,B39,1] delta[B46,B40,0] delta[B46,B40,1]
 delta[B46,B41,0] delta[B46,B41,1] delta[B46,B42,0] delta[B46,B42,1]
 delta[B46,B43,0] delta[B46,B43,1] delta[B46,B44,0] delta[B46,B44,1]
 delta[B46,B45,0] delta[B46,B45,1] delta[B46,B47,0] delta[B46,B47,1]
 delta[B46,B48,0] delta[B46,B48,1] delta[B46,B49,0] delta[B46,B49,1]
 delta[B47,B0,0] delta[B47,B0,1] delta[B47,B1,0] delta[B47,B1,1]
 delta[B47,B2,0] delta[B47,B2,1] delta[B47,B3,0] delta[B47,B3,1]
 delta[B47,B4,0] delta[B47,B4,1] delta[B47,B5,0] delta[B47,B5,1]
 delta[B47,B6,0] delta[B47,B6,1] delta[B47,B7,0] delta[B47,B7,1]
 delta[B47,B8,0] delta[B47,B8,1] delta[B47,B9,0] delta[B47,B9,1]
 delta[B47,B10,0] delta[B47,B10,1] delta[B47,B11,0] delta[B47,B11,1]
 delta[B47,B12,0] delta[B47,B12,1] delta[B47,B13,0] delta[B47,B13,1]
 delta[B47,B14,0] delta[B47,B14,1] delta[B47,B15,0] delta[B47,B15,1]
 delta[B47,B16,0] delta[B47,B16,1] delta[B47,B17,0] delta[B47,B17,1]
 delta[B47,B18,0] delta[B47,B18,1] delta[B47,B19,0] delta[B47,B19,1]
 delta[B47,B20,0] delta[B47,B20,1] delta[B47,B21,0] delta[B47,B21,1]
 delta[B47,B22,0] delta[B47,B22,1] delta[B47,B23,0] delta[B47,B23,1]
 delta[B47,B24,0] delta[B47,B24,1] delta[B47,B25,0] delta[B47,B25,1]
 delta[B47,B26,0] delta[B47,B26,1] delta[B47,B27,0] delta[B47,B27,1]
 delta[B47,B28,0] delta[B47,B28,1] delta[B47,B29,0] delta[B47,B29,1]
 delta[B47,B30,0] delta[B47,B30,1] delta[B47,B31,0] delta[B47,B31,1]
 delta[B47,B32,0] delta[B47,B32,1] delta[B47,B33,0] delta[B47,B33,1]
 delta[B47,B34,0] delta[B47,B34,1] delta[B47,B35,0] delta[B47,B35,1]
 delta[B47,B36,0] delta[B47,B36,1] delta[B47,B37,0] delta[B47,B37,1]
 delta[B47,B38,0] delta[B47,B38,1] delta[B47,B39,0] delta[B47,B39,1]
 delta[B47,B40,0] delta[B47,B40,1] delta[B47,B41,0] delta[B47,B41,1]
 delta[B47,B42,0] delta[B47,B42,1] delta[B47,B43,0] delta[B47,B43,1]
 delta[B47,B44,0] delta[B47,B44,1] delta[B47,B45,0] delta[B47,B45,1]
 delta[B47,B46,0] delta[B47,B46,1] delta[B47,B48,0] delta[B47,B48,1]
 delta[B47,B49,0] delta[B47,B49,1] delta[B48,B0,0] delta[B48,B0,1]
 delta[B48,B1,0] delta[B48,B1,1] delta[B48,B2,0] delta[B48,B2,1]
 delta[B48,B3,0] delta[B48,B3,1] delta[B48,B4,0] delta[B48,B4,1]
 delta[B48,B5,0] delta[B48,B5,1] delta[B48,B6,0] delta[B48,B6,1]
 delta[B48,B7,0] delta[B48,B7,1] delta[B48,B8,0] delta[B48,B8,1]
 delta[B48,B9,0] delta[B48,B9,1] delta[B48,B10,0] delta[B48,B10,1]
 delta[B48,B11,0] delta[B48,B11,1] delta[B48,B12,0] delta[B48,B12,1]
 delta[B48,B13,0] delta[B48,B13,1] delta[B48,B14,0] delta[B48,B14,1]
 delta[B48,B15,0] delta[B48,B15,1] delta[B48,B16,0] delta[B48,B16,1]
 delta[B48,B17,0] delta[B48,B17,1] delta[B48,B18,0] delta[B48,B18,1]
 delta[B48,B19,0] delta[B48,B19,1] delta[B48,B20,0] delta[B48,B20,1]
 delta[B48,B21,0] delta[B48,B21,1] delta[B48,B22,0] delta[B48,B22,1]
 delta[B48,B23,0] delta[B48,B23,1] delta[B48,B24,0] delta[B48,B24,1]
 delta[B48,B25,0] delta[B48,B25,1] delta[B48,B26,0] delta[B48,B26,1]
 delta[B48,B27,0] delta[B48,B27,1] delta[B48,B28,0] delta[B48,B28,1]
 delta[B48,B29,0] delta[B48,B29,1] delta[B48,B30,0] delta[B48,B30,1]
 delta[B48,B31,0] delta[B48,B31,1] delta[B48,B32,0] delta[B48,B32,1]
 delta[B48,B33,0] delta[B48,B33,1] delta[B48,B34,0] delta[B48,B34,1]
 delta[B48,B35,0] delta[B48,B35,1] delta[B48,B36,0] delta[B48,B36,1]
 delta[B48,B37,0] delta[B48,B37,1] delta[B48,B38,0] delta[B48,B38,1]
 delta[B48,B39,0] delta[B48,B39,1] delta[B48,B40,0] delta[B48,B40,1]
 delta[B48,B41,0] delta[B48,B41,1] delta[B48,B42,0] delta[B48,B42,1]
 delta[B48,B43,0] delta[B48,B43,1] delta[B48,B44,0] delta[B48,B44,1]
 delta[B48,B45,0] delta[B48,B45,1] delta[B48,B46,0] delta[B48,B46,1]
 delta[B48,B47,0] delta[B48,B47,1] delta[B48,B49,0] delta[B48,B49,1]
 delta[B49,B0,0] delta[B49,B0,1] delta[B49,B1,0] delta[B49,B1,1]
 delta[B49,B2,0] delta[B49,B2,1] delta[B49,B3,0] delta[B49,B3,1]
 delta[B49,B4,0] delta[B49,B4,1] delta[B49,B5,0] delta[B49,B5,1]
 delta[B49,B6,0] delta[B49,B6,1] delta[B49,B7,0] delta[B49,B7,1]
 delta[B49,B8,0] delta[B49,B8,1] delta[B49,B9,0] delta[B49,B9,1]
 delta[B49,B10,0] delta[B49,B10,1] delta[B49,B11,0] delta[B49,B11,1]
 delta[B49,B12,0] delta[B49,B12,1] delta[B49,B13,0] delta[B49,B13,1]
 delta[B49,B14,0] delta[B49,B14,1] delta[B49,B15,0] delta[B49,B15,1]
 delta[B49,B16,0] delta[B49,B16,1] delta[B49,B17,0] delta[B49,B17,1]
 delta[B49,B18,0] delta[B49,B18,1] delta[B49,B19,0] delta[B49,B19,1]
 delta[B49,B20,0] delta[B49,B20,1] delta[B49,B21,0] delta[B49,B21,1]
 delta[B49,B22,0] delta[B49,B22,1] delta[B49,B23,0] delta[B49,B23,1]
 delta[B49,B24,0] delta[B49,B24,1] delta[B49,B25,0] delta[B49,B25,1]
 delta[B49,B26,0] delta[B49,B26,1] delta[B49,B27,0] delta[B49,B27,1]
 delta[B49,B28,0] delta[B49,B28,1] delta[B49,B29,0] delta[B49,B29,1]
 delta[B49,B30,0] delta[B49,B30,1] delta[B49,B31,0] delta[B49,B31,1]
 delta[B49,B32,0] delta[B49,B32,1] delta[B49,B33,0] delta[B49,B33,1]
 delta[B49,B34,0] delta[B49,B34,1] delta[B49,B35,0] delta[B49,B35,1]
 delta[B49,B36,0] delta[B49,B36,1] delta[B49,B37,0] delta[B49,B37,1]
 delta[B49,B38,0] delta[B49,B38,1] delta[B49,B39,0] delta[B49,B39,1]
 delta[B49,B40,0] delta[B49,B40,1] delta[B49,B41,0] delta[B49,B41,1]
 delta[B49,B42,0] delta[B49,B42,1] delta[B49,B43,0] delta[B49,B43,1]
 delta[B49,B44,0] delta[B49,B44,1] delta[B49,B45,0] delta[B49,B45,1]
 delta[B49,B46,0] delta[B49,B46,1] delta[B49,B47,0] delta[B49,B47,1]
 delta[B49,B48,0] delta[B49,B48,1]
End
