\ Model D-RU-((0, 0), (0, 0))
\ LP format - for model browsing. Use MPS format to capture full model detail.
\ Signature: 0xa976f23ea228653b
Maximize
  phi[0,0] + phi[0,1] + phi[1,0] + phi[1,1]
Subject To
 LB[0,0]: c[1,0] + 2.966640929107852 delt[0,0] >= 3.237940562950665
 LB[0,1]: c[1,1] - 8.437517166137688 delt[0,1] >= 0.5624828338623119
 LB[1,0]: c[0,0] - 4.04930041070546 delt[1,0] >= 0
 LB[1,1]: c[0,1] - 9 delt[1,1] >= 0
 UB[0,0]: c[0,0] + 0.5357427409869544 delt[0,0] <= 5.049301274275802
 UB[0,1]: c[0,1] + 9 delt[0,1] <= 10
 UB[1,0]: c[1,0] + 0.5469167406106523 delt[1,0] <= 4.78485816713166
 UB[1,1]: c[1,1] + 8.437517166137695 delt[1,1] <= 10
 PM[0,0]: c[0,0] - c[1,0] + 2.08266034516795 delt[0,0]
   <= 1.811360711325137
 PM[0,1]: c[0,1] - c[1,1] + 18.43751716613769 delt[0,1]
   <= 9.437517166137688
 PM[1,0]: - c[0,0] + c[1,0] + 5.596218014886455 delt[1,0]
   <= 4.78485816713166
 PM[1,1]: - c[0,1] + c[1,1] + 18.4375171661377 delt[1,1] <= 10
 RM[0,0]: c[0,0] - c[1,0] + 1.082659481597607 delt[0,0]
   - 1.000000863570343 delt[1,0] <= 0.8113598477547943
 RM[0,1]: c[0,1] - c[1,1] + 17.4375171661377 delt[0,1] - delt[1,1]
   <= 8.437517166137695
 RM[1,0]: - c[0,0] + c[1,0] - 4.513558533288847 delt[0,0]
   + 1.082659481597607 delt[1,0] <= 0.271299633842813
 RM[1,1]: - c[0,1] + c[1,1] - delt[0,1] + 17.4375171661377 delt[1,1] <= 9
 DB[0,0]: delt[0,0] >= 0
 DB[0,1]: delt[0,1] >= 0
 DB[1,0]: delt[1,0] >= 0
 DB[1,1]: delt[1,1] >= 0
 S1[0]: delt[0,0] + delt[1,0] <= 1
 S1[1]: delt[0,1] + delt[1,1] <= 1
 S2: delt[0,0] + delt[0,1] + delt[1,0] + delt[1,1] >= 1
 LBt[0,0]: c[1,0] + 2.966640929107852 delt[0,0] + 100 eta[0,0,0]
   <= 103.2379405629507
 LBt[0,1]: c[1,1] - 8.437517166137688 delt[0,1] + 100 eta[0,0,1]
   <= 100.5624828338623
 LBt[1,0]: c[0,0] - 4.04930041070546 delt[1,0] + 100 eta[0,1,0] <= 100
 LBt[1,1]: c[0,1] - 9 delt[1,1] + 100 eta[0,1,1] <= 100
 UBt[0,0]: c[0,0] + 0.5357427409869544 delt[0,0] - 100 eta[1,0,0]
   >= -94.95069872572419
 UBt[0,1]: c[0,1] + 9 delt[0,1] - 100 eta[1,0,1] >= -90
 UBt[1,0]: c[1,0] + 0.5469167406106523 delt[1,0] - 100 eta[1,1,0]
   >= -95.21514183286834
 UBt[1,1]: c[1,1] + 8.437517166137695 delt[1,1] - 100 eta[1,1,1] >= -90
 PMt[0,0]: c[0,0] - c[1,0] + 2.08266034516795 delt[0,0] - 100 eta[2,0,0]
   >= -98.18863928867486
 PMt[0,1]: c[0,1] - c[1,1] + 18.43751716613769 delt[0,1] - 100 eta[2,0,1]
   >= -90.5624828338623
 PMt[1,0]: - c[0,0] + c[1,0] + 5.596218014886455 delt[1,0] - 100 eta[2,1,0]
   >= -95.21514183286834
 PMt[1,1]: - c[0,1] + c[1,1] + 18.4375171661377 delt[1,1] - 100 eta[2,1,1]
   >= -90
 RMt[0,0]: c[0,0] - c[1,0] + 1.082659481597607 delt[0,0]
   - 1.000000863570343 delt[1,0] - 100 eta[3,0,0] >= -99.1886401522452
 RMt[0,1]: c[0,1] - c[1,1] + 17.4375171661377 delt[0,1] - delt[1,1]
   - 100 eta[3,0,1] >= -91.5624828338623
 RMt[1,0]: - c[0,0] + c[1,0] - 4.513558533288847 delt[0,0]
   + 1.082659481597607 delt[1,0] - 100 eta[3,1,0] >= -99.72870036615718
 RMt[1,1]: - c[0,1] + c[1,1] - delt[0,1] + 17.4375171661377 delt[1,1]
   - 100 eta[3,1,1] >= -91
 DBt[0,0]: delt[0,0] + eta[4,0,0] <= 1
 DBt[0,1]: delt[0,1] + eta[4,0,1] <= 1
 DBt[1,0]: delt[1,0] + eta[4,1,0] <= 1
 DBt[1,1]: delt[1,1] + eta[4,1,1] <= 1
 S1t[0]: delt[0,0] + delt[1,0] - zeta[0] >= 0
 S1t[1]: delt[0,1] + delt[1,1] - zeta[1] >= 0
 S2t: delt[0,0] + delt[0,1] + delt[1,0] + delt[1,1] + 3 theta <= 4
 Tite: eta[0,0,0] + eta[0,0,1] + eta[0,1,0] + eta[0,1,1] + eta[1,0,0]
   + eta[1,0,1] + eta[1,1,0] + eta[1,1,1] + eta[2,0,0] + eta[2,0,1]
   + eta[2,1,0] + eta[2,1,1] + eta[3,0,0] + eta[3,0,1] + eta[3,1,0]
   + eta[3,1,1] + eta[4,0,0] + eta[4,0,1] + eta[4,1,0] + eta[4,1,1]
   + zeta[0] + zeta[1] + theta = 8
 Covr1.1[0,0]: eta[0,0,0] + eta[1,0,0] + eta[2,0,0] + eta[3,0,0] <= 3
 Covr1.1[0,1]: eta[0,0,1] + eta[1,0,1] + eta[2,0,1] + eta[3,0,1] <= 3
 Covr1.1[1,0]: eta[0,1,0] + eta[1,1,0] + eta[2,1,0] + eta[3,1,0] <= 3
 Covr1.1[1,1]: eta[0,1,1] + eta[1,1,1] + eta[2,1,1] + eta[3,1,1] <= 3
 Covr2.1[0,0]: eta[2,0,0] + eta[3,0,0] + zeta[0] <= 2
 Covr2.1[0,1]: eta[2,0,1] + eta[3,0,1] + zeta[1] <= 2
 Covr2.1[1,0]: eta[2,1,0] + eta[3,1,0] + zeta[0] <= 2
 Covr2.1[1,1]: eta[2,1,1] + eta[3,1,1] + zeta[1] <= 2
 Obj1[0,0]: - 2 delt[0,0] + phi[0,0] <= 0
 Obj1[0,1]: - 2 delt[0,1] + phi[0,1] <= 0
 Obj1[1,0]: - 2 delt[1,0] + phi[1,0] <= 0
 Obj1[1,1]: - 2 delt[1,1] + phi[1,1] <= 0
 Obj2[0,0]: 2 delt[0,0] + phi[0,0] <= 2
 Obj2[0,1]: 2 delt[0,1] + phi[0,1] <= 2
 Obj2[1,0]: 2 delt[1,0] + phi[1,0] <= 2
 Obj2[1,1]: 2 delt[1,1] + phi[1,1] <= 2
Bounds
Binaries
 eta[0,0,0] eta[0,0,1] eta[0,1,0] eta[0,1,1] eta[1,0,0] eta[1,0,1]
 eta[1,1,0] eta[1,1,1] eta[2,0,0] eta[2,0,1] eta[2,1,0] eta[2,1,1]
 eta[3,0,0] eta[3,0,1] eta[3,1,0] eta[3,1,1] eta[4,0,0] eta[4,0,1]
 eta[4,1,0] eta[4,1,1] zeta[0] zeta[1] theta
End
